<?xml version="1.0"?>
<VTKFile type="UnstructuredGrid" version="0.1" byte_order="LittleEndian" header_type="UInt32" compressor="vtkZLibDataCompressor">
  <UnstructuredGrid>
    <Piece NumberOfPoints="1875" NumberOfCells="0">
      <PointData>
        <DataArray type="Float64" Name="Displacement" NumberOfComponents="2" ComponentName0="d_x" ComponentName1="d_y" format="ascii" RangeMin="0" RangeMax="0">
          0 0 0 0 0 0
          0 0 0 0 0 0
          0 0 0 0 0 0
          0 0 0 0 0 0
          0 0 0 0 0 0
          0 0 0 0 0 0
          0 0 0 0 0 0
          0 0 0 0 0 0
          0 0 0 0 0 0
          0 0 0 0 0 0
          0 0 0 0 0 0
          0 0 0 0 0 0
          0 0 0 0 0 0
          0 0 0 0 0 0
          0 0 0 0 0 0
          0 0 0 0 0 0
          0 0 0 0 0 0
          0 0 0 0 0 0
          0 0 0 0 0 0
          0 0 0 0 0 0
          0 0 0 0 0 0
          0 0 0 0 0 0
          0 0 0 0 0 0
          0 0 0 0 0 0
          0 0 0 0 0 0
          0 0 0 0 0 0
          0 0 0 0 0 0
          0 0 0 0 0 0
          0 0 0 0 0 0
          0 0 0 0 0 0
          0 0 0 0 0 0
          0 0 0 0 0 0
          0 0 0 0 0 0
          0 0 0 0 0 0
          0 0 0 0 0 0
          0 0 0 0 0 0
          0 0 0 0 0 0
          0 0 0 0 0 0
          0 0 0 0 0 0
          0 0 0 0 0 0
          0 0 0 0 0 0
          0 0 0 0 0 0
          0 0 0 0 0 0
          0 0 0 0 0 0
          0 0 0 0 0 0
          0 0 0 0 0 0
          0 0 0 0 0 0
          0 0 0 0 0 0
          0 0 0 0 0 0
          0 0 0 0 0 0
          0 0 0 0 0 0
          0 0 0 0 0 0
          0 0 0 0 0 0
          0 0 0 0 0 0
          0 0 0 0 0 0
          0 0 0 0 0 0
          0 0 0 0 0 0
          0 0 0 0 0 0
          0 0 0 0 0 0
          0 0 0 0 0 0
          0 0 0 0 0 0
          0 0 0 0 0 0
          0 0 0 0 0 0
          0 0 0 0 0 0
          0 0 0 0 0 0
          0 0 0 0 0 0
          0 0 0 0 0 0
          0 0 0 0 0 0
          0 0 0 0 0 0
          0 0 0 0 0 0
          0 0 0 0 0 0
          0 0 0 0 0 0
          0 0 0 0 0 0
          0 0 0 0 0 0
          0 0 0 0 0 0
          0 0 0 0 0 0
          0 0 0 0 0 0
          0 0 0 0 0 0
          0 0 0 0 0 0
          0 0 0 0 0 0
          0 0 0 0 0 0
          0 0 0 0 0 0
          0 0 0 0 0 0
          0 0 0 0 0 0
          0 0 0 0 0 0
          0 0 0 0 0 0
          0 0 0 0 0 0
          0 0 0 0 0 0
          0 0 0 0 0 0
          0 0 0 0 0 0
          0 0 0 0 0 0
          0 0 0 0 0 0
          0 0 0 0 0 0
          0 0 0 0 0 0
          0 0 0 0 0 0
          0 0 0 0 0 0
          0 0 0 0 0 0
          0 0 0 0 0 0
          0 0 0 0 0 0
          0 0 0 0 0 0
          0 0 0 0 0 0
          0 0 0 0 0 0
          0 0 0 0 0 0
          0 0 0 0 0 0
          0 0 0 0 0 0
          0 0 0 0 0 0
          0 0 0 0 0 0
          0 0 0 0 0 0
          0 0 0 0 0 0
          0 0 0 0 0 0
          0 0 0 0 0 0
          0 0 0 0 0 0
          0 0 0 0 0 0
          0 0 0 0 0 0
          0 0 0 0 0 0
          0 0 0 0 0 0
          0 0 0 0 0 0
          0 0 0 0 0 0
          0 0 0 0 0 0
          0 0 0 0 0 0
          0 0 0 0 0 0
          0 0 0 0 0 0
          0 0 0 0 0 0
          0 0 0 0 0 0
          0 0 0 0 0 0
          0 0 0 0 0 0
          0 0 0 0 0 0
          0 0 0 0 0 0
          0 0 0 0 0 0
          0 0 0 0 0 0
          0 0 0 0 0 0
          0 0 0 0 0 0
          0 0 0 0 0 0
          0 0 0 0 0 0
          0 0 0 0 0 0
          0 0 0 0 0 0
          0 0 0 0 0 0
          0 0 0 0 0 0
          0 0 0 0 0 0
          0 0 0 0 0 0
          0 0 0 0 0 0
          0 0 0 0 0 0
          0 0 0 0 0 0
          0 0 0 0 0 0
          0 0 0 0 0 0
          0 0 0 0 0 0
          0 0 0 0 0 0
          0 0 0 0 0 0
          0 0 0 0 0 0
          0 0 0 0 0 0
          0 0 0 0 0 0
          0 0 0 0 0 0
          0 0 0 0 0 0
          0 0 0 0 0 0
          0 0 0 0 0 0
          0 0 0 0 0 0
          0 0 0 0 0 0
          0 0 0 0 0 0
          0 0 0 0 0 0
          0 0 0 0 0 0
          0 0 0 0 0 0
          0 0 0 0 0 0
          0 0 0 0 0 0
          0 0 0 0 0 0
          0 0 0 0 0 0
          0 0 0 0 0 0
          0 0 0 0 0 0
          0 0 0 0 0 0
          0 0 0 0 0 0
          0 0 0 0 0 0
          0 0 0 0 0 0
          0 0 0 0 0 0
          0 0 0 0 0 0
          0 0 0 0 0 0
          0 0 0 0 0 0
          0 0 0 0 0 0
          0 0 0 0 0 0
          0 0 0 0 0 0
          0 0 0 0 0 0
          0 0 0 0 0 0
          0 0 0 0 0 0
          0 0 0 0 0 0
          0 0 0 0 0 0
          0 0 0 0 0 0
          0 0 0 0 0 0
          0 0 0 0 0 0
          0 0 0 0 0 0
          0 0 0 0 0 0
          0 0 0 0 0 0
          0 0 0 0 0 0
          0 0 0 0 0 0
          0 0 0 0 0 0
          0 0 0 0 0 0
          0 0 0 0 0 0
          0 0 0 0 0 0
          0 0 0 0 0 0
          0 0 0 0 0 0
          0 0 0 0 0 0
          0 0 0 0 0 0
          0 0 0 0 0 0
          0 0 0 0 0 0
          0 0 0 0 0 0
          0 0 0 0 0 0
          0 0 0 0 0 0
          0 0 0 0 0 0
          0 0 0 0 0 0
          0 0 0 0 0 0
          0 0 0 0 0 0
          0 0 0 0 0 0
          0 0 0 0 0 0
          0 0 0 0 0 0
          0 0 0 0 0 0
          0 0 0 0 0 0
          0 0 0 0 0 0
          0 0 0 0 0 0
          0 0 0 0 0 0
          0 0 0 0 0 0
          0 0 0 0 0 0
          0 0 0 0 0 0
          0 0 0 0 0 0
          0 0 0 0 0 0
          0 0 0 0 0 0
          0 0 0 0 0 0
          0 0 0 0 0 0
          0 0 0 0 0 0
          0 0 0 0 0 0
          0 0 0 0 0 0
          0 0 0 0 0 0
          0 0 0 0 0 0
          0 0 0 0 0 0
          0 0 0 0 0 0
          0 0 0 0 0 0
          0 0 0 0 0 0
          0 0 0 0 0 0
          0 0 0 0 0 0
          0 0 0 0 0 0
          0 0 0 0 0 0
          0 0 0 0 0 0
          0 0 0 0 0 0
          0 0 0 0 0 0
          0 0 0 0 0 0
          0 0 0 0 0 0
          0 0 0 0 0 0
          0 0 0 0 0 0
          0 0 0 0 0 0
          0 0 0 0 0 0
          0 0 0 0 0 0
          0 0 0 0 0 0
          0 0 0 0 0 0
          0 0 0 0 0 0
          0 0 0 0 0 0
          0 0 0 0 0 0
          0 0 0 0 0 0
          0 0 0 0 0 0
          0 0 0 0 0 0
          0 0 0 0 0 0
          0 0 0 0 0 0
          0 0 0 0 0 0
          0 0 0 0 0 0
          0 0 0 0 0 0
          0 0 0 0 0 0
          0 0 0 0 0 0
          0 0 0 0 0 0
          0 0 0 0 0 0
          0 0 0 0 0 0
          0 0 0 0 0 0
          0 0 0 0 0 0
          0 0 0 0 0 0
          0 0 0 0 0 0
          0 0 0 0 0 0
          0 0 0 0 0 0
          0 0 0 0 0 0
          0 0 0 0 0 0
          0 0 0 0 0 0
          0 0 0 0 0 0
          0 0 0 0 0 0
          0 0 0 0 0 0
          0 0 0 0 0 0
          0 0 0 0 0 0
          0 0 0 0 0 0
          0 0 0 0 0 0
          0 0 0 0 0 0
          0 0 0 0 0 0
          0 0 0 0 0 0
          0 0 0 0 0 0
          0 0 0 0 0 0
          0 0 0 0 0 0
          0 0 0 0 0 0
          0 0 0 0 0 0
          0 0 0 0 0 0
          0 0 0 0 0 0
          0 0 0 0 0 0
          0 0 0 0 0 0
          0 0 0 0 0 0
          0 0 0 0 0 0
          0 0 0 0 0 0
          0 0 0 0 0 0
          0 0 0 0 0 0
          0 0 0 0 0 0
          0 0 0 0 0 0
          0 0 0 0 0 0
          0 0 0 0 0 0
          0 0 0 0 0 0
          0 0 0 0 0 0
          0 0 0 0 0 0
          0 0 0 0 0 0
          0 0 0 0 0 0
          0 0 0 0 0 0
          0 0 0 0 0 0
          0 0 0 0 0 0
          0 0 0 0 0 0
          0 0 0 0 0 0
          0 0 0 0 0 0
          0 0 0 0 0 0
          0 0 0 0 0 0
          0 0 0 0 0 0
          0 0 0 0 0 0
          0 0 0 0 0 0
          0 0 0 0 0 0
          0 0 0 0 0 0
          0 0 0 0 0 0
          0 0 0 0 0 0
          0 0 0 0 0 0
          0 0 0 0 0 0
          0 0 0 0 0 0
          0 0 0 0 0 0
          0 0 0 0 0 0
          0 0 0 0 0 0
          0 0 0 0 0 0
          0 0 0 0 0 0
          0 0 0 0 0 0
          0 0 0 0 0 0
          0 0 0 0 0 0
          0 0 0 0 0 0
          0 0 0 0 0 0
          0 0 0 0 0 0
          0 0 0 0 0 0
          0 0 0 0 0 0
          0 0 0 0 0 0
          0 0 0 0 0 0
          0 0 0 0 0 0
          0 0 0 0 0 0
          0 0 0 0 0 0
          0 0 0 0 0 0
          0 0 0 0 0 0
          0 0 0 0 0 0
          0 0 0 0 0 0
          0 0 0 0 0 0
          0 0 0 0 0 0
          0 0 0 0 0 0
          0 0 0 0 0 0
          0 0 0 0 0 0
          0 0 0 0 0 0
          0 0 0 0 0 0
          0 0 0 0 0 0
          0 0 0 0 0 0
          0 0 0 0 0 0
          0 0 0 0 0 0
          0 0 0 0 0 0
          0 0 0 0 0 0
          0 0 0 0 0 0
          0 0 0 0 0 0
          0 0 0 0 0 0
          0 0 0 0 0 0
          0 0 0 0 0 0
          0 0 0 0 0 0
          0 0 0 0 0 0
          0 0 0 0 0 0
          0 0 0 0 0 0
          0 0 0 0 0 0
          0 0 0 0 0 0
          0 0 0 0 0 0
          0 0 0 0 0 0
          0 0 0 0 0 0
          0 0 0 0 0 0
          0 0 0 0 0 0
          0 0 0 0 0 0
          0 0 0 0 0 0
          0 0 0 0 0 0
          0 0 0 0 0 0
          0 0 0 0 0 0
          0 0 0 0 0 0
          0 0 0 0 0 0
          0 0 0 0 0 0
          0 0 0 0 0 0
          0 0 0 0 0 0
          0 0 0 0 0 0
          0 0 0 0 0 0
          0 0 0 0 0 0
          0 0 0 0 0 0
          0 0 0 0 0 0
          0 0 0 0 0 0
          0 0 0 0 0 0
          0 0 0 0 0 0
          0 0 0 0 0 0
          0 0 0 0 0 0
          0 0 0 0 0 0
          0 0 0 0 0 0
          0 0 0 0 0 0
          0 0 0 0 0 0
          0 0 0 0 0 0
          0 0 0 0 0 0
          0 0 0 0 0 0
          0 0 0 0 0 0
          0 0 0 0 0 0
          0 0 0 0 0 0
          0 0 0 0 0 0
          0 0 0 0 0 0
          0 0 0 0 0 0
          0 0 0 0 0 0
          0 0 0 0 0 0
          0 0 0 0 0 0
          0 0 0 0 0 0
          0 0 0 0 0 0
          0 0 0 0 0 0
          0 0 0 0 0 0
          0 0 0 0 0 0
          0 0 0 0 0 0
          0 0 0 0 0 0
          0 0 0 0 0 0
          0 0 0 0 0 0
          0 0 0 0 0 0
          0 0 0 0 0 0
          0 0 0 0 0 0
          0 0 0 0 0 0
          0 0 0 0 0 0
          0 0 0 0 0 0
          0 0 0 0 0 0
          0 0 0 0 0 0
          0 0 0 0 0 0
          0 0 0 0 0 0
          0 0 0 0 0 0
          0 0 0 0 0 0
          0 0 0 0 0 0
          0 0 0 0 0 0
          0 0 0 0 0 0
          0 0 0 0 0 0
          0 0 0 0 0 0
          0 0 0 0 0 0
          0 0 0 0 0 0
          0 0 0 0 0 0
          0 0 0 0 0 0
          0 0 0 0 0 0
          0 0 0 0 0 0
          0 0 0 0 0 0
          0 0 0 0 0 0
          0 0 0 0 0 0
          0 0 0 0 0 0
          0 0 0 0 0 0
          0 0 0 0 0 0
          0 0 0 0 0 0
          0 0 0 0 0 0
          0 0 0 0 0 0
          0 0 0 0 0 0
          0 0 0 0 0 0
          0 0 0 0 0 0
          0 0 0 0 0 0
          0 0 0 0 0 0
          0 0 0 0 0 0
          0 0 0 0 0 0
          0 0 0 0 0 0
          0 0 0 0 0 0
          0 0 0 0 0 0
          0 0 0 0 0 0
          0 0 0 0 0 0
          0 0 0 0 0 0
          0 0 0 0 0 0
          0 0 0 0 0 0
          0 0 0 0 0 0
          0 0 0 0 0 0
          0 0 0 0 0 0
          0 0 0 0 0 0
          0 0 0 0 0 0
          0 0 0 0 0 0
          0 0 0 0 0 0
          0 0 0 0 0 0
          0 0 0 0 0 0
          0 0 0 0 0 0
          0 0 0 0 0 0
          0 0 0 0 0 0
          0 0 0 0 0 0
          0 0 0 0 0 0
          0 0 0 0 0 0
          0 0 0 0 0 0
          0 0 0 0 0 0
          0 0 0 0 0 0
          0 0 0 0 0 0
          0 0 0 0 0 0
          0 0 0 0 0 0
          0 0 0 0 0 0
          0 0 0 0 0 0
          0 0 0 0 0 0
          0 0 0 0 0 0
          0 0 0 0 0 0
          0 0 0 0 0 0
          0 0 0 0 0 0
          0 0 0 0 0 0
          0 0 0 0 0 0
          0 0 0 0 0 0
          0 0 0 0 0 0
          0 0 0 0 0 0
          0 0 0 0 0 0
          0 0 0 0 0 0
          0 0 0 0 0 0
          0 0 0 0 0 0
          0 0 0 0 0 0
          0 0 0 0 0 0
          0 0 0 0 0 0
          0 0 0 0 0 0
          0 0 0 0 0 0
          0 0 0 0 0 0
          0 0 0 0 0 0
          0 0 0 0 0 0
          0 0 0 0 0 0
          0 0 0 0 0 0
          0 0 0 0 0 0
          0 0 0 0 0 0
          0 0 0 0 0 0
          0 0 0 0 0 0
          0 0 0 0 0 0
          0 0 0 0 0 0
          0 0 0 0 0 0
          0 0 0 0 0 0
          0 0 0 0 0 0
          0 0 0 0 0 0
          0 0 0 0 0 0
          0 0 0 0 0 0
          0 0 0 0 0 0
          0 0 0 0 0 0
          0 0 0 0 0 0
          0 0 0 0 0 0
          0 0 0 0 0 0
          0 0 0 0 0 0
          0 0 0 0 0 0
          0 0 0 0 0 0
          0 0 0 0 0 0
          0 0 0 0 0 0
          0 0 0 0 0 0
          0 0 0 0 0 0
          0 0 0 0 0 0
          0 0 0 0 0 0
          0 0 0 0 0 0
          0 0 0 0 0 0
          0 0 0 0 0 0
          0 0 0 0 0 0
          0 0 0 0 0 0
          0 0 0 0 0 0
          0 0 0 0 0 0
          0 0 0 0 0 0
          0 0 0 0 0 0
          0 0 0 0 0 0
          0 0 0 0 0 0
          0 0 0 0 0 0
          0 0 0 0 0 0
          0 0 0 0 0 0
          0 0 0 0 0 0
          0 0 0 0 0 0
          0 0 0 0 0 0
          0 0 0 0 0 0
          0 0 0 0 0 0
          0 0 0 0 0 0
          0 0 0 0 0 0
          0 0 0 0 0 0
          0 0 0 0 0 0
          0 0 0 0 0 0
          0 0 0 0 0 0
          0 0 0 0 0 0
          0 0 0 0 0 0
          0 0 0 0 0 0
          0 0 0 0 0 0
          0 0 0 0 0 0
          0 0 0 0 0 0
          0 0 0 0 0 0
          0 0 0 0 0 0
          0 0 0 0 0 0
          0 0 0 0 0 0
          0 0 0 0 0 0
          0 0 0 0 0 0
          0 0 0 0 0 0
          0 0 0 0 0 0
          0 0 0 0 0 0
          0 0 0 0 0 0
          0 0 0 0 0 0
          0 0 0 0 0 0
          0 0 0 0 0 0
          0 0 0 0 0 0
          0 0 0 0 0 0
          0 0 0 0 0 0
          0 0 0 0 0 0
          0 0 0 0 0 0
          0 0 0 0 0 0
          0 0 0 0 0 0
          0 0 0 0 0 0
          0 0 0 0 0 0
          0 0 0 0 0 0
          0 0 0 0 0 0
          0 0 0 0 0 0
          0 0 0 0 0 0
          0 0 0 0 0 0
          0 0 0 0 0 0
          0 0 0 0 0 0
          0 0 0 0 0 0
          0 0 0 0 0 0
          0 0 0 0 0 0
          0 0 0 0 0 0
          0 0 0 0 0 0
          0 0 0 0 0 0
          0 0 0 0 0 0
          0 0 0 0 0 0
          0 0 0 0 0 0
          0 0 0 0 0 0
          0 0 0 0 0 0
          0 0 0 0 0 0
          0 0 0 0 0 0
          0 0 0 0 0 0
          0 0 0 0 0 0
          0 0 0 0 0 0
          0 0 0 0 0 0
          0 0 0 0 0 0
          0 0 0 0 0 0
          0 0 0 0 0 0
          0 0 0 0 0 0
          0 0 0 0 0 0
          0 0 0 0 0 0
          0 0 0 0 0 0
        </DataArray>
        <DataArray type="Int32" Name="Neighbors" format="ascii" RangeMin="25" RangeMax="80">
          25 30 35 40 44 45
          45 45 45 45 45 45
          45 45 45 45 45 45
          45 45 44 40 35 30
          25 30 36 42 48 53
          54 54 54 54 54 54
          54 54 54 54 54 54
          54 54 54 53 48 42
          36 30 35 42 49 56
          62 63 63 63 63 63
          63 63 63 63 63 63
          63 63 63 63 62 56
          49 42 35 40 48 56
          64 71 72 72 72 72
          72 72 72 72 72 72
          72 72 72 72 72 71
          64 56 48 40 44 53
          62 71 78 79 79 79
          79 79 79 79 79 79
          79 79 79 79 79 79
          78 71 62 53 44 45
          54 63 72 79 80 80
          80 80 80 80 80 80
          80 80 80 80 80 80
          80 79 72 63 54 45
          45 54 63 72 79 80
          80 80 80 80 80 80
          80 80 80 80 80 80
          80 80 79 72 63 54
          45 45 54 63 72 79
          80 80 80 80 80 80
          80 80 80 80 80 80
          80 80 80 79 72 63
          54 45 45 54 63 72
          79 80 80 80 80 80
          80 80 80 80 80 80
          80 80 80 80 79 72
          63 54 45 45 54 63
          72 79 80 80 80 80
          80 80 80 80 80 80
          80 80 80 80 80 79
          72 63 54 45 45 54
          63 72 79 80 80 80
          80 80 80 80 80 80
          80 80 80 80 80 80
          79 72 63 54 45 45
          54 63 72 79 80 80
          80 80 80 80 80 80
          80 80 80 80 80 80
          80 79 72 63 54 45
          45 54 63 72 79 80
          80 80 80 80 80 80
          80 80 80 80 80 80
          80 80 79 72 63 54
          45 45 54 63 72 79
          80 80 80 80 80 80
          80 80 80 80 80 80
          80 80 80 79 72 63
          54 45 45 54 63 72
          79 80 80 80 80 80
          80 80 80 80 80 80
          80 80 80 80 79 72
          63 54 45 45 54 63
          72 79 80 80 80 80
          80 80 80 80 80 80
          80 80 80 80 80 79
          72 63 54 45 45 54
          63 72 79 80 80 80
          80 80 80 80 80 80
          80 80 80 80 80 80
          79 72 63 54 45 45
          54 63 72 79 80 80
          80 80 80 80 80 80
          80 80 80 80 80 80
          80 79 72 63 54 45
          45 54 63 72 79 80
          80 80 80 80 80 80
          80 80 80 80 80 80
          80 80 79 72 63 54
          45 45 54 63 72 79
          80 80 80 80 80 80
          80 80 80 80 80 80
          80 80 80 79 72 63
          54 45 45 54 63 72
          79 80 80 80 80 80
          80 80 80 80 80 80
          80 80 80 80 79 72
          63 54 45 45 54 63
          72 79 80 80 80 80
          80 80 80 80 80 80
          80 80 80 80 80 79
          72 63 54 45 45 54
          63 72 79 80 80 80
          80 80 80 80 80 80
          80 80 80 80 80 80
          79 72 63 54 45 45
          54 63 72 79 80 80
          80 80 80 80 80 80
          80 80 80 80 80 80
          80 79 72 63 54 45
          45 54 63 72 79 80
          80 80 80 80 80 80
          80 80 80 80 80 80
          80 80 79 72 63 54
          45 45 54 63 72 79
          80 80 80 80 80 80
          80 80 80 80 80 80
          80 80 80 79 72 63
          54 45 45 54 63 72
          79 80 80 80 80 80
          80 80 80 80 80 80
          80 80 80 80 79 72
          63 54 45 45 54 63
          72 79 80 80 80 80
          80 80 80 80 80 80
          80 80 80 80 80 79
          72 63 54 45 45 54
          63 72 79 80 80 80
          80 80 80 80 80 80
          80 80 80 80 80 80
          79 72 63 54 45 45
          54 63 72 79 80 80
          80 80 80 80 80 80
          80 80 80 80 80 80
          80 79 72 63 54 45
          45 54 63 72 79 80
          80 80 80 80 80 80
          80 80 80 80 80 80
          80 80 79 72 63 54
          45 45 54 63 72 79
          80 80 80 80 80 80
          80 80 80 80 80 80
          80 80 80 79 72 63
          54 45 45 54 63 72
          79 80 80 80 80 80
          80 80 80 80 80 80
          80 80 80 80 79 72
          63 54 45 45 54 63
          72 79 80 80 80 80
          80 80 80 80 80 80
          80 80 80 80 80 79
          72 63 54 45 45 54
          63 72 79 80 80 80
          80 80 80 80 80 80
          80 80 80 80 80 80
          79 72 63 54 45 45
          54 63 72 79 80 80
          80 80 80 80 80 80
          80 80 80 80 80 80
          80 79 72 63 54 45
          45 54 63 72 79 80
          80 80 80 80 80 80
          80 80 80 80 80 80
          80 80 79 72 63 54
          45 45 54 63 72 79
          80 80 80 80 80 80
          80 80 80 80 80 80
          80 80 80 79 72 63
          54 45 45 54 63 72
          79 80 80 80 80 80
          80 80 80 80 80 80
          80 80 80 80 79 72
          63 54 45 45 54 63
          72 79 80 80 80 80
          80 80 80 80 80 80
          80 80 80 80 80 79
          72 63 54 45 45 54
          63 72 79 80 80 80
          80 80 80 80 80 80
          80 80 80 80 80 80
          79 72 63 54 45 45
          54 63 72 79 80 80
          80 80 80 80 80 80
          80 80 80 80 80 80
          80 79 72 63 54 45
          45 54 63 72 79 80
          80 80 80 80 80 80
          80 80 80 80 80 80
          80 80 79 72 63 54
          45 45 54 63 72 79
          80 80 80 80 80 80
          80 80 80 80 80 80
          80 80 80 79 72 63
          54 45 45 54 63 72
          79 80 80 80 80 80
          80 80 80 80 80 80
          80 80 80 80 79 72
          63 54 45 45 54 63
          72 79 80 80 80 80
          80 80 80 80 80 80
          80 80 80 80 80 79
          72 63 54 45 45 54
          63 72 79 80 80 80
          80 80 80 80 80 80
          80 80 80 80 80 80
          79 72 63 54 45 45
          54 63 72 79 80 80
          80 80 80 80 80 80
          80 80 80 80 80 80
          80 79 72 63 54 45
          45 54 63 72 79 80
          80 80 80 80 80 80
          80 80 80 80 80 80
          80 80 79 72 63 54
          45 45 54 63 72 79
          80 80 80 80 80 80
          80 80 80 80 80 80
          80 80 80 79 72 63
          54 45 45 54 63 72
          79 80 80 80 80 80
          80 80 80 80 80 80
          80 80 80 80 79 72
          63 54 45 45 54 63
          72 79 80 80 80 80
          80 80 80 80 80 80
          80 80 80 80 80 79
          72 63 54 45 45 54
          63 72 79 80 80 80
          80 80 80 80 80 80
          80 80 80 80 80 80
          79 72 63 54 45 45
          54 63 72 79 80 80
          80 80 80 80 80 80
          80 80 80 80 80 80
          80 79 72 63 54 45
          45 54 63 72 79 80
          80 80 80 80 80 80
          80 80 80 80 80 80
          80 80 79 72 63 54
          45 45 54 63 72 79
          80 80 80 80 80 80
          80 80 80 80 80 80
          80 80 80 79 72 63
          54 45 45 54 63 72
          79 80 80 80 80 80
          80 80 80 80 80 80
          80 80 80 80 79 72
          63 54 45 45 54 63
          72 79 80 80 80 80
          80 80 80 80 80 80
          80 80 80 80 80 79
          72 63 54 45 45 54
          63 72 79 80 80 80
          80 80 80 80 80 80
          80 80 80 80 80 80
          79 72 63 54 45 45
          54 63 72 79 80 80
          80 80 80 80 80 80
          80 80 80 80 80 80
          80 79 72 63 54 45
          45 54 63 72 79 80
          80 80 80 80 80 80
          80 80 80 80 80 80
          80 80 79 72 63 54
          45 45 54 63 72 79
          80 80 80 80 80 80
          80 80 80 80 80 80
          80 80 80 79 72 63
          54 45 45 54 63 72
          79 80 80 80 80 80
          80 80 80 80 80 80
          80 80 80 80 79 72
          63 54 45 45 54 63
          72 79 80 80 80 80
          80 80 80 80 80 80
          80 80 80 80 80 79
          72 63 54 45 45 54
          63 72 79 80 80 80
          80 80 80 80 80 80
          80 80 80 80 80 80
          79 72 63 54 45 45
          54 63 72 79 80 80
          80 80 80 80 80 80
          80 80 80 80 80 80
          80 79 72 63 54 45
          45 54 63 72 79 80
          80 80 80 80 80 80
          80 80 80 80 80 80
          80 80 79 72 63 54
          45 45 54 63 72 79
          80 80 80 80 80 80
          80 80 80 80 80 80
          80 80 80 79 72 63
          54 45 45 54 63 72
          79 80 80 80 80 80
          80 80 80 80 80 80
          80 80 80 80 79 72
          63 54 45 45 54 63
          72 79 80 80 80 80
          80 80 80 80 80 80
          80 80 80 80 80 79
          72 63 54 45 44 53
          62 71 78 79 79 79
          79 79 79 79 79 79
          79 79 79 79 79 79
          78 71 62 53 44 40
          48 56 64 71 72 72
          72 72 72 72 72 72
          72 72 72 72 72 72
          72 71 64 56 48 40
          35 42 49 56 62 63
          63 63 63 63 63 63
          63 63 63 63 63 63
          63 63 62 56 49 42
          35 30 36 42 48 53
          54 54 54 54 54 54
          54 54 54 54 54 54
          54 54 54 53 48 42
          36 30 25 30 35 40
          44 45 45 45 45 45
          45 45 45 45 45 45
          45 45 45 45 44 40
          35 30 25
        </DataArray>
        <DataArray type="Float64" Name="Strain_Energy" format="ascii" RangeMin="0.00076949704907" RangeMax="0.1788405684">
          0.001863966677 0.0015322402012 0.0020802925926 0.0028623184766 0.0027031860158 0.0029558894988
          0.0034628020634 0.0032570270895 0.0037827054116 0.0044509573389 0.0042513329126 0.0049230337179
          0.0046215132252 0.0042348376266 0.0044898064378 0.0038986507393 0.0039840842449 0.0039485382926
          0.002786426424 0.0024203347251 0.0020000974843 0.0014565870293 0.001599636401 0.0017892116853
          0.00077294675529 0.0017573521788 0.0023295766984 0.0020871579721 0.0026999894083 0.0026925135057
          0.003055419281 0.0036119057531 0.0037302443635 0.0041777235859 0.0047593617309 0.0046913351459
          0.0052637004744 0.0050571768519 0.0048067154198 0.0049788452626 0.0044473311915 0.0044777287933
          0.0044537476666 0.0034299432414 0.0030571757302 0.0026000017225 0.0021389952186 0.0021639483736
          0.001357797683 0.001217869256 0.0016485254088 0.0020254207125 0.0021369373389 0.0025337076463
          0.0024745295856 0.0028788749566 0.0034243161873 0.0039375208788 0.003882485129 0.0043719856911
          0.0044834251947 0.0050186008195 0.0050479791277 0.004835001916 0.0047819435815 0.0043694432504
          0.0042629052225 0.0038549095177 0.003573892584 0.003243148338 0.0028869146581 0.0028311374399
          0.0028378327057 0.0019843892197 0.0017913866628 0.0016031855401 0.00099538314533 0.0014726619004
          0.0018680718778 0.0024335801453 0.0029104419678 0.0034161342539 0.0038773563542 0.0040618389391
          0.0044967190108 0.004799775455 0.0052647312722 0.0054463787502 0.0052682762677 0.0051040466841
          0.0047760773371 0.004535934638 0.0042206694666 0.0039630335557 0.0036480778731 0.0033267116799
          0.0031812590608 0.0031519345206 0.0032549823829 0.0023726722188 0.0015405563551 0.00098322541398
          0.0012497295499 0.0018273896993 0.002390587547 0.0028709973058 0.003274595401 0.0036603584405
          0.0040590083488 0.0044130385323 0.0048813199859 0.0052614916673 0.0054859121114 0.0054214390733
          0.0052140057479 0.0048735332093 0.0046362333393 0.0043009993369 0.0040394136373 0.0038585130394
          0.0036122410379 0.003514424392 0.0035130226356 0.0037772743464 0.0027903745489 0.00076949704907
          0.00085907666916 0.0013637011183 0.0017667880972 0.0022601090071 0.0027508576961 0.0032841669471
          0.0036051380867 0.0040939904222 0.0044231674106 0.004867352489 0.0051189964798 0.0052803459379
          0.0053083157369 0.0052790466196 0.0049933531225 0.0048000992727 0.0044549425542 0.0043120064192
          0.0040167312312 0.0037572481649 0.0037822629039 0.0040360794642 0.0040777254567 0.0042172819432
          0.00091444622387 0.0010795934061 0.0013567184905 0.0018443133284 0.002275796492 0.0027021747592
          0.0031282826963 0.0035929324347 0.0039826831255 0.0043735078996 0.0046806026319 0.0048358457679
          0.0049683581327 0.0050920353034 0.0051991641978 0.0050188195387 0.0047652961662 0.0045663544754
          0.0043282993541 0.0042061633929 0.0040681321965 0.0042353171658 0.0044596899967 0.0047789495859
          0.0048468061767 0.0019139287 0.0012191872127 0.001610707754 0.0019305754541 0.0023094094235
          0.0027668152275 0.0031029102221 0.0035534622623 0.0039507667811 0.0043795198454 0.0045401111792
          0.0046958272232 0.0048369589657 0.005006994518 0.0051557485004 0.0050939932237 0.0048331792572
          0.0046835281982 0.0045208186541 0.0044918158974 0.0043781773293 0.0046831288002 0.0051471986539
          0.0054228303313 0.0046130566337 0.002189850572 0.001637579666 0.0020130540292 0.002196134736
          0.0024453724496 0.0027749716372 0.003177072965 0.0035942203466 0.0040318430689 0.0042275308973
          0.0043479411691 0.0046023681763 0.0048244054768 0.004957980677 0.0050349984718 0.0050324126069
          0.0050539499539 0.0048666627225 0.0047363344597 0.0046793292944 0.0047644183401 0.0053252231461
          0.0060745647878 0.0065182047951 0.0056922956686 0.002332194745 0.0025807385809 0.0021239241099
          0.0023100342912 0.0025111432723 0.0028204075631 0.003299103492 0.003681413319 0.0039550416316
          0.0041339859164 0.0042875758081 0.0045909556918 0.0047864060375 0.0049801407023 0.0050363805268
          0.0050848560343 0.0051487933664 0.00511663449 0.0050211251318 0.0049621834962 0.0050453649228
          0.0057573059731 0.0066624005542 0.0069246489635 0.006675522062 0.0025998883547 0.0028126512951
          0.0029557395321 0.002581000358 0.0026543442846 0.0029986397142 0.0032954073493 0.0036544930009
          0.0038819922835 0.0040346466161 0.0042842932619 0.004624232108 0.0048253160125 0.0050353965437
          0.0050881399925 0.0051579194952 0.0052875072507 0.0053318245707 0.0053392472664 0.0054218941115
          0.0055578961077 0.0065268943876 0.0075100972373 0.008030074966 0.008030525055 0.0034728226161
          0.0031641869132 0.0030538123232 0.0029950214766 0.0028946308165 0.0030415956976 0.0033611791294
          0.0036763497226 0.0039896241364 0.0041483418799 0.0043519814763 0.0045534985272 0.0047908855202
          0.0049929629684 0.005167849496 0.0053952611854 0.0055593150121 0.0055939281537 0.0056174152283
          0.0057045801882 0.0060835514188 0.0071335828154 0.008319981323 0.0093211347971 0.0083939562861
          0.003900354484 0.0041042684127 0.0033938015491 0.00307838711 0.0030565138145 0.0031522885896
          0.0033078369862 0.0035340143222 0.0038141480718 0.0041042411545 0.0044257059583 0.004687771269
          0.0049205132809 0.0051189862397 0.0053109242452 0.0054039343317 0.00549304293 0.0055900628402
          0.0057604874861 0.0060688039868 0.0064890668299 0.007654909711 0.0093808396854 0.010064157729
          0.010066020382 0.0047348994167 0.0043722552599 0.0040151526804 0.0037018660921 0.0032946846779
          0.0032294592953 0.0034366545625 0.0037012351282 0.0039392066467 0.0041804127913 0.0044238612485
          0.0047687291304 0.0049297638482 0.0051537821625 0.0052840144569 0.0054835659939 0.0056958481114
          0.0058547560144 0.0060260496188 0.0063158416695 0.0069871295794 0.008421714882 0.010033616597
          0.011508765169 0.010836419663 0.0054846726953 0.0052470981066 0.0046214043748 0.0038202619211
          0.0034457915543 0.0035082318661 0.0036342172881 0.0038700441489 0.0040561735502 0.0043651835333
          0.0045774874184 0.0049282787429 0.0050307197027 0.0053369917132 0.0054636215404 0.0057781742072
          0.0059051591337 0.0061844877311 0.0064334076979 0.0068117646211 0.0072881786297 0.0089416775193
          0.010616925125 0.0122640389 0.01143273583 0.0058087085684 0.0058048016362 0.0053890295193
          0.0041143950336 0.0037654070606 0.0037501900411 0.0038878424006 0.0040748635129 0.0043293782845
          0.0045186759809 0.0047078108187 0.0047904459505 0.0049272315714 0.0052207353282 0.0055865176858
          0.0059408320645 0.0062559236286 0.006511851365 0.0068155021391 0.0072215284288 0.0077789727287
          0.009405216694 0.011542466859 0.012967497131 0.013551678046 0.0071336718077 0.0067182087992
          0.0059027245325 0.0045703936275 0.0041344696882 0.0040345751136 0.0042713700298 0.0042574977687
          0.0045386522297 0.0045383462474 0.0045628317556 0.0046758561836 0.0048796939733 0.0051245027505
          0.0055708547204 0.006073483695 0.0065566302808 0.0068554925332 0.0073411298565 0.0076482885801
          0.0083360896937 0.010103856231 0.012412619764 0.014275374908 0.013663011974 0.0083265504397
          0.0077031019152 0.0064633858 0.0049938298964 0.004528888752 0.0043050732417 0.0043661085348
          0.0042698950358 0.0043946284087 0.0043703657759 0.0045131977366 0.0046750551143 0.004912226955
          0.0051362724889 0.0055293727825 0.0059664408444 0.0065194680089 0.0069673128123 0.007543998017
          0.0080680107529 0.0089270587483 0.010855104151 0.013437153986 0.015862643502 0.015609999497
          0.0092788864315 0.009224098702 0.0070898911803 0.0054871142752 0.0047388223504 0.0045948386838
          0.0045215625961 0.0042359880391 0.004205110211 0.0043571503167 0.0046381366891 0.0048062967214
          0.0049530968869 0.0052723395734 0.005665203687 0.0060465189376 0.0064587979797 0.0070772993877
          0.0079093601642 0.0085176565758 0.0093658301502 0.011637378552 0.014557098076 0.016999418776
          0.017520064625 0.01093491456 0.010118736325 0.0077927673085 0.0062323357823 0.0053980327004
          0.0049303344783 0.0045588193918 0.0043718947077 0.0043134837618 0.0043047687255 0.00453979411
          0.0048856296819 0.0050373803201 0.005374407586 0.005645150615 0.0059905981847 0.0066189288733
          0.0073656663032 0.0081461012646 0.0090928252798 0.010229059634 0.012589365542 0.016012568407
          0.018938690681 0.018895322009 0.011919244436 0.011371399804 0.008796317474 0.0072446120737
          0.0059031620709 0.0053294888158 0.0047634531694 0.0045932382693 0.0044797077352 0.0045087480027
          0.0045720987154 0.004662432891 0.0048382909031 0.0052330195734 0.0056756089074 0.00626060123
          0.0068724676599 0.0076637342843 0.0084770023631 0.0096926101128 0.010990442833 0.013850636737
          0.017100117533 0.020215443964 0.021259567494 0.013146379638 0.012565508535 0.010034922201
          0.0077702082301 0.0065095120724 0.005732298176 0.0050152172882 0.0048188306176 0.0046253849775
          0.0046003495161 0.0045054281373 0.0044695756083 0.00461949616 0.0050616833017 0.0057490389392
          0.0063707079169 0.0070908562152 0.0079284544455 0.0088437858703 0.01016025637 0.011704689264
          0.014751145118 0.018633213155 0.021654647331 0.022712363646 0.014999597933 0.013938933983
          0.01121779184 0.0089884767706 0.0070015347268 0.0060933103614 0.0052556552875 0.0048877536017
          0.0047379608949 0.0045485152417 0.0044172497398 0.0044530695572 0.0046155090663 0.0050693831597
          0.0056834300819 0.0064335480666 0.0072255421773 0.0080533785913 0.0090964169563 0.010637498325
          0.012357186726 0.015983740584 0.020178403642 0.023539791107 0.023697350861 0.01588145557
          0.01502223998 0.012152178336 0.0095470483757 0.0075297044424 0.0064748219616 0.0054749254321
          0.0048858048293 0.0047956145142 0.0046389282401 0.0045461294279 0.0045177468639 0.0046475618599
          0.0051493340259 0.0058573060603 0.006594449072 0.0073664456805 0.0081563694304 0.0094412909977
          0.011098677964 0.012994988597 0.016746445591 0.021464207404 0.025123509873 0.025309161517
          0.017511805272 0.0165087003 0.013514796063 0.010383214667 0.0082569359564 0.0068376948613
          0.0057857709209 0.0050914099532 0.00476490093 0.0046839936562 0.0045777318765 0.0047426404933
          0.0047238635011 0.005354982251 0.0058805206519 0.0065666589062 0.007416728052 0.0084184675481
          0.009876474953 0.011613349534 0.01390871543 0.017854822319 0.022742102988 0.02640084948
          0.026556947391 0.018890949843 0.018519193104 0.015038650143 0.011483015818 0.0089761387355
          0.0073967348347 0.0061871539874 0.0053472229216 0.0050498023756 0.0047335159172 0.0045523176478
          0.0044724085386 0.0046037402392 0.0051151843406 0.0058184823803 0.0066632037936 0.0077274113515
          0.0087689718495 0.010297626495 0.012316405824 0.014790364282 0.019154417153 0.024352555847
          0.028450744715 0.029318392916 0.020831712109 0.02037578986 0.016425466937 0.012276601084
          0.0096056093638 0.0078709532106 0.0064402713157 0.0055888079148 0.005211192769 0.0047916024018
          0.0044901720591 0.0043191226761 0.004505791518 0.0049460270944 0.0057986777226 0.0068056814758
          0.0079193718004 0.0090075814255 0.010598308408 0.012774361033 0.015490671785 0.020080907272
          0.025976227551 0.030553299847 0.031580991333 0.0227209122 0.021738062504 0.017522303415
          0.013029986881 0.010143089077 0.008333514536 0.0071056299927 0.0058092499468 0.0051890932448
          0.0049262884968 0.0045694709649 0.0043734711675 0.0044972659529 0.0049863111029 0.0058469809892
          0.0069597775155 0.0079432186156 0.0092991866127 0.011277330787 0.013268094346 0.016057448442
          0.020938843531 0.02732197014 0.032396352992 0.032727242176 0.024718959965 0.023044733875
          0.018818411483 0.014008790736 0.010630551428 0.0088818086779 0.0072268924891 0.0061154121762
          0.0052691625462 0.0048825366052 0.0046126137641 0.0046605272406 0.0047067534486 0.0052674249859
          0.0059462246803 0.0069141955682 0.0080513827988 0.0096094759237 0.0114700946 0.013897102004
          0.016604821616 0.021939969354 0.028495533397 0.034354288997 0.035695821042 0.02679848915
          0.025018592763 0.019602590689 0.01498465811 0.011239958082 0.0093745211896 0.0077331576611
          0.0063304265687 0.0054470935348 0.0050410268563 0.0048613655907 0.0045537646899 0.0046233494551
          0.00525049272 0.0061812500797 0.0071132454575 0.0082610602644 0.009855913242 0.012062895369
          0.014451900994 0.01722752174 0.022906354417 0.029842304655 0.036310901388 0.037652719482
          0.028694720519 0.027004063737 0.021280937574 0.016079116269 0.012196671035 0.010029379502
          0.0083213427103 0.0067884517976 0.0056362409706 0.0051024462618 0.0047114606462 0.0045232734462
          0.0046690202782 0.005234128188 0.0061033567471 0.0072343287377 0.008513035114 0.010429506545
          0.01267894256 0.01519418362 0.018243331228 0.024151015657 0.031684606935 0.038489343106
          0.039873164433 0.03087198178 0.029522995039 0.023726698033 0.017520013193 0.013309612081
          0.010906373013 0.0087857470043 0.007247995092 0.0059042342239 0.0051225970989 0.0047996978272
          0.0045361168494 0.0046753485042 0.0052481653743 0.006278745139 0.0073362029139 0.0088507136221
          0.010879833116 0.013168607891 0.016115324335 0.019473718845 0.025683408026 0.033900207832
          0.040610250005 0.041469862022 0.032655696399 0.031471231119 0.025638129398 0.01909684067
          0.014547204173 0.011830506038 0.0095393839074 0.0075936250998 0.0062645710988 0.0052145173731
          0.0046924749139 0.0044874182938 0.0046721774413 0.0052527514608 0.0061620091874 0.0074462637154
          0.0092303025478 0.011314516008 0.013994096017 0.016997531889 0.020665297443 0.027217038859
          0.035684933658 0.042368247988 0.043088925597 0.034951892105 0.033857523803 0.027495841073
          0.020729287199 0.01573232182 0.012829420042 0.010134686611 0.0080169503975 0.006476191385
          0.005295482179 0.0046854351046 0.004491496602 0.0046741196721 0.0052284754669 0.0061530663829
          0.0075211953085 0.0094839293799 0.011716586899 0.014592479301 0.01800356588 0.02188151247
          0.028882807239 0.037567463234 0.044838359835 0.045494562004 0.037549915411 0.035844303345
          0.029116417155 0.021886048306 0.016964806868 0.013636117485 0.010736725763 0.0083587958045
          0.0066633605053 0.0055445910983 0.0048927406137 0.0045326531928 0.0046836722182 0.0052258170726
          0.006380859761 0.0077681199206 0.0096211253222 0.012091404341 0.015243090457 0.01887384864
          0.023078288278 0.030136495559 0.039351177853 0.047214516264 0.048570183405 0.040390258375
          0.038545975618 0.031344010468 0.023340361347 0.017871827934 0.014287881971 0.01126827048
          0.0089023468681 0.0070240708328 0.0057635032906 0.0050680858186 0.0046327601702 0.0047075919331
          0.0053531807019 0.0064883578637 0.0079654131102 0.0099357721771 0.012610325716 0.015740707728
          0.019502015948 0.024029287989 0.031536104227 0.041499259643 0.04969196739 0.051185577358
          0.043160881559 0.041048437578 0.032517094832 0.024367153427 0.018682113333 0.015030331117
          0.011761541944 0.009427218836 0.0073050795011 0.0059682331157 0.005021360043 0.0045823279651
          0.0046462392084 0.005281653573 0.0064409515961 0.0080942945992 0.010215345968 0.013070170239
          0.016193447815 0.020269395708 0.024847460822 0.032700614644 0.043072845494 0.052211439477
          0.054019595006 0.045856694273 0.043023074019 0.034636577781 0.026056079694 0.019632112972
          0.015651218218 0.012420140786 0.0097031726062 0.0075762332182 0.0059132524949 0.0050191255534
          0.0047135879829 0.004683985606 0.005351304875 0.0064311487997 0.0080083538474 0.010381745651
          0.013277685967 0.016776386194 0.020814454525 0.025782115591 0.034205769312 0.044850926156
          0.054369633677 0.056894024987 0.048236511643 0.045759025539 0.037391997007 0.027505987541
          0.02077629529 0.016587044964 0.013106924486 0.010188816381 0.0078641057814 0.0060015980579
          0.0049652065323 0.0045278194227 0.0045486892437 0.0052098695414 0.006269776656 0.0080493873063
          0.010677018489 0.013752875469 0.017410500617 0.021735556518 0.026855079126 0.035739105181
          0.047356647042 0.056815335508 0.058988786912 0.050775542912 0.047979820889 0.039046740383
          0.029033403997 0.021732921962 0.017135748832 0.013556815535 0.010508971423 0.0080474986114
          0.0060703277196 0.0048390068337 0.0044002367575 0.0044800005731 0.0050546654331 0.0061715499354
          0.0081082073249 0.01079839345 0.014004189017 0.017832104848 0.022117917113 0.027692620564
          0.036911967833 0.048862111246 0.058914338998 0.061542505826 0.053612884494 0.050610219623
          0.040752522792 0.030388517298 0.022515972366 0.017765949102 0.013916009411 0.010806018784
          0.0082537866426 0.0062338876339 0.0049180390759 0.0043320063054 0.0042853755936 0.0049439684175
          0.0062782446912 0.0082489257438 0.011011395454 0.014234206913 0.018051802957 0.022687527708
          0.028374901072 0.038162385582 0.050610544218 0.061682595232 0.063689721653 0.056453509821
          0.053480801274 0.043125216944 0.031834684244 0.023436640499 0.018272088805 0.014385870148
          0.011131617415 0.008430825189 0.0065178848547 0.0049918323706 0.0042413532528 0.004201515319
          0.0049104640279 0.0063650793444 0.008510351377 0.011093308736 0.014490548272 0.018417052477
          0.023122218235 0.029175361269 0.039531072975 0.052795734812 0.064319766986 0.066260752372
          0.060088955825 0.056633468899 0.045335611214 0.033652777558 0.024689468504 0.019380370612
          0.015025378037 0.011576402456 0.0087159496296 0.0067276449582 0.0052665956393 0.0044058443569
          0.0042994012407 0.0050691122812 0.0065910117271 0.0087627525695 0.011376529833 0.014886650816
          0.019035492519 0.024106051173 0.030332719398 0.041339950757 0.054989687281 0.06749103727
          0.070015825367 0.063070363458 0.059809356312 0.048211497777 0.035670178036 0.026444484012
          0.02073249451 0.01609427888 0.012313330629 0.0094169135432 0.0069589436864 0.0054344094
          0.0046272051069 0.0045785496428 0.0053303947076 0.006759349005 0.0089469312552 0.012005340696
          0.015597519126 0.020053054193 0.025426382521 0.031995499512 0.043099634782 0.05756935414
          0.070269157037 0.072575963749 0.065862587228 0.062483887156 0.05047961137 0.037709531878
          0.028031861625 0.022050928105 0.016990373981 0.01293255711 0.0097441175674 0.0071484485709
          0.0055018108459 0.0046254960915 0.0045185870454 0.0052686948268 0.0068168091606 0.0090931900719
          0.012306899098 0.016145198406 0.020911206379 0.026666111311 0.033542150635 0.044992921165
          0.059601758956 0.072692950383 0.075230039581 0.069205076294 0.066020213857 0.052912222614
          0.039557581429 0.029421502377 0.023053366276 0.017817029351 0.013508602476 0.0099446166437
          0.0073702880884 0.0054118702529 0.004556655085 0.0043924419561 0.0052660122667 0.0067248074215
          0.0092672108662 0.012507727105 0.016675948632 0.021624033197 0.027557251348 0.034772996317
          0.046750465762 0.061922487744 0.075696892069 0.078740380971 0.07196904748 0.06891730364
          0.055477610741 0.041606199754 0.031007927554 0.024388438805 0.018537008298 0.013870107838
          0.010333653268 0.0074446969334 0.0055371511873 0.0045589608841 0.0044350167732 0.0052010285711
          0.0068453182794 0.0093719195184 0.012862908348 0.016964794201 0.022316480268 0.028796202311
          0.036278167028 0.048587714594 0.064242874993 0.078280585295 0.081204314995 0.074909395145
          0.071825936289 0.05870332291 0.043648424005 0.032688522944 0.025626136425 0.019400964434
          0.014594544327 0.010636558734 0.0076760203932 0.0057191564204 0.0046884641132 0.0044591325501
          0.0052919916297 0.0070064875474 0.0095185566829 0.013055397166 0.017695622988 0.023115828037
          0.029980709709 0.037770481556 0.050476755332 0.06701001292 0.081103448678 0.083358547699
          0.077643297942 0.075066617077 0.060494190684 0.04552436578 0.034153294555 0.026632946971
          0.020197828853 0.014963674946 0.011144237636 0.0081039253908 0.0059560825807 0.0047883010687
          0.0046034805879 0.0053948606501 0.0071999224662 0.00985212933 0.013496663267 0.017932928407
          0.023720988559 0.030822865002 0.03907011777 0.052073452556 0.068757411461 0.083963176636
          0.085810762132 0.081596521626 0.077727497588 0.063820004787 0.047639427547 0.035637895134
          0.027776354971 0.021019060485 0.015734135139 0.011460455165 0.0082554532044 0.0061007526332
          0.0048988490944 0.004643571684 0.0054515800756 0.0072876480397 0.0099608498684 0.013720646206
          0.01857193278 0.024427667357 0.031796495055 0.040384502421 0.053955271521 0.071635526724
          0.086440127589 0.089665373568 0.085432962667 0.081622173716 0.06708404911 0.049775667608
          0.03720153891 0.029102293946 0.021985576596 0.016293508436 0.011788433676 0.0084863227827
          0.0063212764263 0.0048626203336 0.004634659079 0.0054214994788 0.0074494794596 0.010072883791
          0.013926631031 0.01903201505 0.02524778001 0.032931042349 0.041772693111 0.055881175306
          0.074520648694 0.089959254326 0.093277209661 0.089863044437 0.085804803609 0.069778567887
          0.051576046546 0.03858154486 0.030118097658 0.022841951974 0.01675270437 0.012179433132
          0.0085668597266 0.0062800985925 0.00495541746 0.0046702181365 0.0054592933953 0.0073543445033
          0.010114234468 0.014208612787 0.019314114181 0.02594290714 0.033815392652 0.042964357974
          0.05743826039 0.077003402303 0.09397066144 0.097582725981 0.093643971544 0.089516499345
          0.072875252933 0.053444820023 0.039961457856 0.031360077676 0.023937587156 0.017664780748
          0.012650401251 0.0088203494513 0.0062077069625 0.0049193877281 0.0046611569475 0.0054249533019
          0.0072034744348 0.01024210812 0.014602364066 0.020145557039 0.02689245033 0.03484292693
          0.044173220334 0.059095200283 0.07977279229 0.097247657313 0.10093781526 0.098974502439
          0.093680050191 0.07563608847 0.055468801204 0.041340176987 0.032531863115 0.024919526631
          0.018315462176 0.013093877078 0.0090363065635 0.0063373535733 0.0049299464422 0.0045923932629
          0.0053571835697 0.0072616792506 0.010409794011 0.014918570148 0.020620688272 0.02772854076
          0.035893216576 0.045364911802 0.06085798231 0.082278218827 0.1011454507 0.10607486513
          0.10341466386 0.097677628245 0.079051915212 0.057773140749 0.042910826525 0.033871154292
          0.026010462717 0.019104236025 0.013565745563 0.0094819330545 0.0064388778814 0.0049657635638
          0.0045902756506 0.005402758913 0.007302494204 0.010725477667 0.015276521313 0.02131062562
          0.028656060661 0.037093504401 0.046735524303 0.062924904887 0.085384193769 0.10470799665
          0.10994882191 0.10693952366 0.10168033885 0.081747818687 0.060088512798 0.044531547495
          0.035260397006 0.027120464025 0.019832361799 0.014008518404 0.0096416536008 0.0066015925199
          0.0050942333227 0.0045839142691 0.0054603359378 0.0074201243823 0.010852346009 0.015607399117
          0.021857608526 0.029598421718 0.038243498932 0.048131362407 0.064991802322 0.087759581065
          0.10809530802 0.11326021291 0.11062810606 0.105027918 0.085088551042 0.062742490188
          0.046733965979 0.036717794288 0.027929842749 0.020409879151 0.014449885083 0.0098141939695
          0.0066504261964 0.0050327236403 0.0045804951641 0.005417328964 0.0074134532903 0.010963732729
          0.015934092854 0.022332061566 0.030306451458 0.039522582048 0.050081034921 0.067268601695
          0.090694193836 0.11130606448 0.11660078706 0.11426560006 0.10931012515 0.088569787992
          0.065442525452 0.048851023919 0.038265259038 0.028977956516 0.021138588508 0.015005815908
          0.010310847807 0.006831520305 0.0050190851783 0.0043754678872 0.0053333504805 0.0075399275996
          0.011354213027 0.01645781286 0.02295368303 0.031180007382 0.04090406118 0.052020381611
          0.069676859279 0.093899703695 0.11503268348 0.11961365236 0.11929048089 0.11410792307
          0.092979654577 0.068758783946 0.050810747314 0.039500666653 0.030065503291 0.021875238019
          0.015373509272 0.010679012046 0.0071114845515 0.0050631698615 0.0044820978202 0.0053935961478
          0.0077613127852 0.011659842069 0.016704880586 0.02357913838 0.032097257881 0.041962082751
          0.053713154764 0.07268504326 0.097895050152 0.11944159277 0.12424731303 0.12445020588
          0.11902502217 0.096333761942 0.072019420605 0.052822595879 0.040975029909 0.030751201789
          0.022399492378 0.015928907603 0.01115889997 0.0073865027612 0.0052367854763 0.0045032990408
          0.0055610647187 0.0079736671894 0.012076275115 0.017130882704 0.023922109128 0.032681799565
          0.04326233885 0.055545868597 0.075612740543 0.10096006261 0.12408400748 0.1292883569
          0.12962704109 0.12321216477 0.099458072035 0.074104747656 0.054088106608 0.041837129463
          0.031305975591 0.022837578399 0.016215001749 0.011336858291 0.0076433090069 0.0054411624835
          0.0047315527932 0.0057030936834 0.0081609291205 0.01211874591 0.017279619577 0.024216807677
          0.033039763277 0.043932182297 0.056549038713 0.077474703674 0.10371844112 0.12784916047
          0.1340699507 0.13377720884 0.12714190453 0.10251133826 0.075487799592 0.05563022369
          0.043049016093 0.032229609278 0.023520979636 0.016539408089 0.011231522517 0.0077664648661
          0.0053749191415 0.0046343337797 0.0056365723973 0.0082159894419 0.011942093355 0.01753582003
          0.024760533355 0.033813832396 0.044944402425 0.057888719911 0.078560428556 0.10635405109
          0.13128656125 0.13774963261 0.13850563318 0.13111878296 0.10564514028 0.078690045343
          0.057716780813 0.044789318197 0.033858867676 0.024762333643 0.017339523042 0.011708196503
          0.0077099500699 0.0052989260009 0.0046143160437 0.0054967134264 0.0081626246186 0.012363727323
          0.018218961464 0.025880769965 0.035257009227 0.046491093702 0.059783527593 0.081433717139
          0.10916921307 0.1349151897 0.14204120715 0.14265174792 0.13559670369 0.10939491721
          0.080660215609 0.059573465408 0.046495022071 0.03536629267 0.025897059365 0.018294353279
          0.012273339176 0.0077947937171 0.0052021449331 0.0044608279063 0.0053925663951 0.0081885974912
          0.01287085136 0.019063410666 0.026900956975 0.036633812001 0.047988782669 0.061422887377
          0.083176474567 0.11254187011 0.13898135007 0.14582264693 0.14563279614 0.13919581603
          0.11279455543 0.083241463728 0.061230254864 0.047836952703 0.036540338034 0.026922220556
          0.018944704326 0.01257149679 0.0081211307197 0.0054419937676 0.0044912509436 0.0056273122337
          0.0084534396408 0.013109540357 0.019647425954 0.027808023795 0.037626839851 0.04918659022
          0.062803906261 0.085417574759 0.11553782688 0.14212006651 0.14839780421 0.1503395822
          0.14336111037 0.11607051249 0.085676992841 0.063453875446 0.04909615937 0.037378116302
          0.027554943814 0.019262184155 0.012657982927 0.0082437568731 0.0054205278394 0.0045218412854
          0.0055495073146 0.0085090915746 0.013075751948 0.019843610666 0.028314598372 0.038328036038
          0.050252935991 0.064823323873 0.087608810745 0.11848371801 0.14593963342 0.15273034474
          0.1552223827 0.14822786186 0.11942400562 0.088547358631 0.066009040891 0.051524980769
          0.038878919817 0.028338165767 0.019437253745 0.012921846372 0.0080504999649 0.0053149757238
          0.0045559194555 0.0054364290882 0.0083051138935 0.013276026722 0.019956955641 0.029029190078
          0.03970614573 0.052512464466 0.0672422505 0.090265727951 0.12155985344 0.1505480763
          0.15733427799 0.16008555635 0.15255882786 0.12370324013 0.092045654366 0.068158625684
          0.053427448543 0.040611599473 0.029487617682 0.020286597566 0.013079963278 0.008069549658
          0.005361523816 0.0044388238683 0.005441374175 0.0082735954146 0.013379547075 0.020740003678
          0.030065483533 0.041324062058 0.054287695344 0.069221629857 0.093503345293 0.12556359001
          0.15452610749 0.16190671027 0.16499967863 0.15746819053 0.12776676384 0.095078079866
          0.070264382895 0.055409516772 0.041847369937 0.030304247106 0.021019579456 0.013706417506
          0.0083720697985 0.0054647305622 0.0045144488101 0.0055430622579 0.008531763069 0.013958559292
          0.021376016111 0.030776199547 0.042451696744 0.056127657033 0.071170082771 0.09633813863
          0.12936182315 0.15915623706 0.16652489577 0.16995191894 0.16202960019 0.13087119183
          0.097027004183 0.072056747319 0.0559412637 0.042465578847 0.03108516097 0.021555699482
          0.014116099943 0.0089714306838 0.005693499096 0.0045817889643 0.0057690759088 0.0090942011846
          0.014321027409 0.021849404339 0.031451283131 0.042955089006 0.056541272976 0.072802560831
          0.098104570461 0.13225395382 0.1634716113 0.1711860849 0.16950488407 0.16346573664
          0.13204785052 0.098265089182 0.07230701886 0.05586556846 0.042228179713 0.031066427744
          0.021802706677 0.014352230188 0.0090935085386 0.0058262403898 0.0046636302194 0.0058671485085
          0.0092031825035 0.014507611057 0.022011909874 0.031371359187 0.042621322038 0.056367131517
          0.072949845642 0.099162535515 0.13323685033 0.16460678592 0.17051032256 0.15410870597
          0.14829585765 0.11829860052 0.086824982919 0.063734525735 0.050168760288 0.037344996887
          0.027195399915 0.019078362391 0.012623118226 0.0079727933586 0.0051317804216 0.0041716056992
          0.0051713257517 0.0080527917066 0.012750330092 0.019255823891 0.027439453853 0.037678027371
          0.05061287112 0.064279525505 0.087628872011 0.11930802215 0.14918011624 0.15476152538
          0.14738928834 0.14514362304 0.11314387093 0.087527893097 0.063115771645 0.045306306628
          0.035342936392 0.027177639441 0.018117208988 0.010854461241 0.007391528418 0.0040573076202
          0.0029858846025 0.0040977116928 0.0074764670971 0.010963265238 0.01828513545 0.027416013971
          0.035641059342 0.045672878548 0.063630106045 0.088273305203 0.11400210461 0.14587484719
          0.14771379357 0.16468720389 0.15987497585 0.12029635172 0.092252300547 0.064786964709
          0.04912732594 0.036267435018 0.026460426088 0.019083256169 0.010517291092 0.0068439562457
          0.0039026289439 0.0022552117328 0.0039406266106 0.0069084151514 0.010610067594 0.019228979369
          0.026650910464 0.036518590925 0.049463514317 0.065218026011 0.092929593718 0.12108192385
          0.16048377294 0.16491221219 0.17859945713 0.16789688804 0.13478045941 0.10051461912
          0.07626067126 0.055994031205 0.045637756972 0.033617854941 0.023282402308 0.013962781303
          0.0066978373243 0.0032250198188 0.0021152233592 0.0032446356158 0.006741797855 0.014045494873
          0.023405518326 0.033792086247 0.045874948278 0.056292018603 0.076674726901 0.10112084651
          0.1354637784 0.1684405868 0.1788405684
        </DataArray>
        <DataArray type="Float64" Name="Volume_Force" NumberOfComponents="2" ComponentName0="f_x" ComponentName1="f_y" format="ascii" RangeMin="0" RangeMax="0">
          0 0 0 0 0 0
          0 0 0 0 0 0
          0 0 0 0 0 0
          0 0 0 0 0 0
          0 0 0 0 0 0
          0 0 0 0 0 0
          0 0 0 0 0 0
          0 0 0 0 0 0
          0 0 0 0 0 0
          0 0 0 0 0 0
          0 0 0 0 0 0
          0 0 0 0 0 0
          0 0 0 0 0 0
          0 0 0 0 0 0
          0 0 0 0 0 0
          0 0 0 0 0 0
          0 0 0 0 0 0
          0 0 0 0 0 0
          0 0 0 0 0 0
          0 0 0 0 0 0
          0 0 0 0 0 0
          0 0 0 0 0 0
          0 0 0 0 0 0
          0 0 0 0 0 0
          0 0 0 0 0 0
          0 0 0 0 0 0
          0 0 0 0 0 0
          0 0 0 0 0 0
          0 0 0 0 0 0
          0 0 0 0 0 0
          0 0 0 0 0 0
          0 0 0 0 0 0
          0 0 0 0 0 0
          0 0 0 0 0 0
          0 0 0 0 0 0
          0 0 0 0 0 0
          0 0 0 0 0 0
          0 0 0 0 0 0
          0 0 0 0 0 0
          0 0 0 0 0 0
          0 0 0 0 0 0
          0 0 0 0 0 0
          0 0 0 0 0 0
          0 0 0 0 0 0
          0 0 0 0 0 0
          0 0 0 0 0 0
          0 0 0 0 0 0
          0 0 0 0 0 0
          0 0 0 0 0 0
          0 0 0 0 0 0
          0 0 0 0 0 0
          0 0 0 0 0 0
          0 0 0 0 0 0
          0 0 0 0 0 0
          0 0 0 0 0 0
          0 0 0 0 0 0
          0 0 0 0 0 0
          0 0 0 0 0 0
          0 0 0 0 0 0
          0 0 0 0 0 0
          0 0 0 0 0 0
          0 0 0 0 0 0
          0 0 0 0 0 0
          0 0 0 0 0 0
          0 0 0 0 0 0
          0 0 0 0 0 0
          0 0 0 0 0 0
          0 0 0 0 0 0
          0 0 0 0 0 0
          0 0 0 0 0 0
          0 0 0 0 0 0
          0 0 0 0 0 0
          0 0 0 0 0 0
          0 0 0 0 0 0
          0 0 0 0 0 0
          0 0 0 0 0 0
          0 0 0 0 0 0
          0 0 0 0 0 0
          0 0 0 0 0 0
          0 0 0 0 0 0
          0 0 0 0 0 0
          0 0 0 0 0 0
          0 0 0 0 0 0
          0 0 0 0 0 0
          0 0 0 0 0 0
          0 0 0 0 0 0
          0 0 0 0 0 0
          0 0 0 0 0 0
          0 0 0 0 0 0
          0 0 0 0 0 0
          0 0 0 0 0 0
          0 0 0 0 0 0
          0 0 0 0 0 0
          0 0 0 0 0 0
          0 0 0 0 0 0
          0 0 0 0 0 0
          0 0 0 0 0 0
          0 0 0 0 0 0
          0 0 0 0 0 0
          0 0 0 0 0 0
          0 0 0 0 0 0
          0 0 0 0 0 0
          0 0 0 0 0 0
          0 0 0 0 0 0
          0 0 0 0 0 0
          0 0 0 0 0 0
          0 0 0 0 0 0
          0 0 0 0 0 0
          0 0 0 0 0 0
          0 0 0 0 0 0
          0 0 0 0 0 0
          0 0 0 0 0 0
          0 0 0 0 0 0
          0 0 0 0 0 0
          0 0 0 0 0 0
          0 0 0 0 0 0
          0 0 0 0 0 0
          0 0 0 0 0 0
          0 0 0 0 0 0
          0 0 0 0 0 0
          0 0 0 0 0 0
          0 0 0 0 0 0
          0 0 0 0 0 0
          0 0 0 0 0 0
          0 0 0 0 0 0
          0 0 0 0 0 0
          0 0 0 0 0 0
          0 0 0 0 0 0
          0 0 0 0 0 0
          0 0 0 0 0 0
          0 0 0 0 0 0
          0 0 0 0 0 0
          0 0 0 0 0 0
          0 0 0 0 0 0
          0 0 0 0 0 0
          0 0 0 0 0 0
          0 0 0 0 0 0
          0 0 0 0 0 0
          0 0 0 0 0 0
          0 0 0 0 0 0
          0 0 0 0 0 0
          0 0 0 0 0 0
          0 0 0 0 0 0
          0 0 0 0 0 0
          0 0 0 0 0 0
          0 0 0 0 0 0
          0 0 0 0 0 0
          0 0 0 0 0 0
          0 0 0 0 0 0
          0 0 0 0 0 0
          0 0 0 0 0 0
          0 0 0 0 0 0
          0 0 0 0 0 0
          0 0 0 0 0 0
          0 0 0 0 0 0
          0 0 0 0 0 0
          0 0 0 0 0 0
          0 0 0 0 0 0
          0 0 0 0 0 0
          0 0 0 0 0 0
          0 0 0 0 0 0
          0 0 0 0 0 0
          0 0 0 0 0 0
          0 0 0 0 0 0
          0 0 0 0 0 0
          0 0 0 0 0 0
          0 0 0 0 0 0
          0 0 0 0 0 0
          0 0 0 0 0 0
          0 0 0 0 0 0
          0 0 0 0 0 0
          0 0 0 0 0 0
          0 0 0 0 0 0
          0 0 0 0 0 0
          0 0 0 0 0 0
          0 0 0 0 0 0
          0 0 0 0 0 0
          0 0 0 0 0 0
          0 0 0 0 0 0
          0 0 0 0 0 0
          0 0 0 0 0 0
          0 0 0 0 0 0
          0 0 0 0 0 0
          0 0 0 0 0 0
          0 0 0 0 0 0
          0 0 0 0 0 0
          0 0 0 0 0 0
          0 0 0 0 0 0
          0 0 0 0 0 0
          0 0 0 0 0 0
          0 0 0 0 0 0
          0 0 0 0 0 0
          0 0 0 0 0 0
          0 0 0 0 0 0
          0 0 0 0 0 0
          0 0 0 0 0 0
          0 0 0 0 0 0
          0 0 0 0 0 0
          0 0 0 0 0 0
          0 0 0 0 0 0
          0 0 0 0 0 0
          0 0 0 0 0 0
          0 0 0 0 0 0
          0 0 0 0 0 0
          0 0 0 0 0 0
          0 0 0 0 0 0
          0 0 0 0 0 0
          0 0 0 0 0 0
          0 0 0 0 0 0
          0 0 0 0 0 0
          0 0 0 0 0 0
          0 0 0 0 0 0
          0 0 0 0 0 0
          0 0 0 0 0 0
          0 0 0 0 0 0
          0 0 0 0 0 0
          0 0 0 0 0 0
          0 0 0 0 0 0
          0 0 0 0 0 0
          0 0 0 0 0 0
          0 0 0 0 0 0
          0 0 0 0 0 0
          0 0 0 0 0 0
          0 0 0 0 0 0
          0 0 0 0 0 0
          0 0 0 0 0 0
          0 0 0 0 0 0
          0 0 0 0 0 0
          0 0 0 0 0 0
          0 0 0 0 0 0
          0 0 0 0 0 0
          0 0 0 0 0 0
          0 0 0 0 0 0
          0 0 0 0 0 0
          0 0 0 0 0 0
          0 0 0 0 0 0
          0 0 0 0 0 0
          0 0 0 0 0 0
          0 0 0 0 0 0
          0 0 0 0 0 0
          0 0 0 0 0 0
          0 0 0 0 0 0
          0 0 0 0 0 0
          0 0 0 0 0 0
          0 0 0 0 0 0
          0 0 0 0 0 0
          0 0 0 0 0 0
          0 0 0 0 0 0
          0 0 0 0 0 0
          0 0 0 0 0 0
          0 0 0 0 0 0
          0 0 0 0 0 0
          0 0 0 0 0 0
          0 0 0 0 0 0
          0 0 0 0 0 0
          0 0 0 0 0 0
          0 0 0 0 0 0
          0 0 0 0 0 0
          0 0 0 0 0 0
          0 0 0 0 0 0
          0 0 0 0 0 0
          0 0 0 0 0 0
          0 0 0 0 0 0
          0 0 0 0 0 0
          0 0 0 0 0 0
          0 0 0 0 0 0
          0 0 0 0 0 0
          0 0 0 0 0 0
          0 0 0 0 0 0
          0 0 0 0 0 0
          0 0 0 0 0 0
          0 0 0 0 0 0
          0 0 0 0 0 0
          0 0 0 0 0 0
          0 0 0 0 0 0
          0 0 0 0 0 0
          0 0 0 0 0 0
          0 0 0 0 0 0
          0 0 0 0 0 0
          0 0 0 0 0 0
          0 0 0 0 0 0
          0 0 0 0 0 0
          0 0 0 0 0 0
          0 0 0 0 0 0
          0 0 0 0 0 0
          0 0 0 0 0 0
          0 0 0 0 0 0
          0 0 0 0 0 0
          0 0 0 0 0 0
          0 0 0 0 0 0
          0 0 0 0 0 0
          0 0 0 0 0 0
          0 0 0 0 0 0
          0 0 0 0 0 0
          0 0 0 0 0 0
          0 0 0 0 0 0
          0 0 0 0 0 0
          0 0 0 0 0 0
          0 0 0 0 0 0
          0 0 0 0 0 0
          0 0 0 0 0 0
          0 0 0 0 0 0
          0 0 0 0 0 0
          0 0 0 0 0 0
          0 0 0 0 0 0
          0 0 0 0 0 0
          0 0 0 0 0 0
          0 0 0 0 0 0
          0 0 0 0 0 0
          0 0 0 0 0 0
          0 0 0 0 0 0
          0 0 0 0 0 0
          0 0 0 0 0 0
          0 0 0 0 0 0
          0 0 0 0 0 0
          0 0 0 0 0 0
          0 0 0 0 0 0
          0 0 0 0 0 0
          0 0 0 0 0 0
          0 0 0 0 0 0
          0 0 0 0 0 0
          0 0 0 0 0 0
          0 0 0 0 0 0
          0 0 0 0 0 0
          0 0 0 0 0 0
          0 0 0 0 0 0
          0 0 0 0 0 0
          0 0 0 0 0 0
          0 0 0 0 0 0
          0 0 0 0 0 0
          0 0 0 0 0 0
          0 0 0 0 0 0
          0 0 0 0 0 0
          0 0 0 0 0 0
          0 0 0 0 0 0
          0 0 0 0 0 0
          0 0 0 0 0 0
          0 0 0 0 0 0
          0 0 0 0 0 0
          0 0 0 0 0 0
          0 0 0 0 0 0
          0 0 0 0 0 0
          0 0 0 0 0 0
          0 0 0 0 0 0
          0 0 0 0 0 0
          0 0 0 0 0 0
          0 0 0 0 0 0
          0 0 0 0 0 0
          0 0 0 0 0 0
          0 0 0 0 0 0
          0 0 0 0 0 0
          0 0 0 0 0 0
          0 0 0 0 0 0
          0 0 0 0 0 0
          0 0 0 0 0 0
          0 0 0 0 0 0
          0 0 0 0 0 0
          0 0 0 0 0 0
          0 0 0 0 0 0
          0 0 0 0 0 0
          0 0 0 0 0 0
          0 0 0 0 0 0
          0 0 0 0 0 0
          0 0 0 0 0 0
          0 0 0 0 0 0
          0 0 0 0 0 0
          0 0 0 0 0 0
          0 0 0 0 0 0
          0 0 0 0 0 0
          0 0 0 0 0 0
          0 0 0 0 0 0
          0 0 0 0 0 0
          0 0 0 0 0 0
          0 0 0 0 0 0
          0 0 0 0 0 0
          0 0 0 0 0 0
          0 0 0 0 0 0
          0 0 0 0 0 0
          0 0 0 0 0 0
          0 0 0 0 0 0
          0 0 0 0 0 0
          0 0 0 0 0 0
          0 0 0 0 0 0
          0 0 0 0 0 0
          0 0 0 0 0 0
          0 0 0 0 0 0
          0 0 0 0 0 0
          0 0 0 0 0 0
          0 0 0 0 0 0
          0 0 0 0 0 0
          0 0 0 0 0 0
          0 0 0 0 0 0
          0 0 0 0 0 0
          0 0 0 0 0 0
          0 0 0 0 0 0
          0 0 0 0 0 0
          0 0 0 0 0 0
          0 0 0 0 0 0
          0 0 0 0 0 0
          0 0 0 0 0 0
          0 0 0 0 0 0
          0 0 0 0 0 0
          0 0 0 0 0 0
          0 0 0 0 0 0
          0 0 0 0 0 0
          0 0 0 0 0 0
          0 0 0 0 0 0
          0 0 0 0 0 0
          0 0 0 0 0 0
          0 0 0 0 0 0
          0 0 0 0 0 0
          0 0 0 0 0 0
          0 0 0 0 0 0
          0 0 0 0 0 0
          0 0 0 0 0 0
          0 0 0 0 0 0
          0 0 0 0 0 0
          0 0 0 0 0 0
          0 0 0 0 0 0
          0 0 0 0 0 0
          0 0 0 0 0 0
          0 0 0 0 0 0
          0 0 0 0 0 0
          0 0 0 0 0 0
          0 0 0 0 0 0
          0 0 0 0 0 0
          0 0 0 0 0 0
          0 0 0 0 0 0
          0 0 0 0 0 0
          0 0 0 0 0 0
          0 0 0 0 0 0
          0 0 0 0 0 0
          0 0 0 0 0 0
          0 0 0 0 0 0
          0 0 0 0 0 0
          0 0 0 0 0 0
          0 0 0 0 0 0
          0 0 0 0 0 0
          0 0 0 0 0 0
          0 0 0 0 0 0
          0 0 0 0 0 0
          0 0 0 0 0 0
          0 0 0 0 0 0
          0 0 0 0 0 0
          0 0 0 0 0 0
          0 0 0 0 0 0
          0 0 0 0 0 0
          0 0 0 0 0 0
          0 0 0 0 0 0
          0 0 0 0 0 0
          0 0 0 0 0 0
          0 0 0 0 0 0
          0 0 0 0 0 0
          0 0 0 0 0 0
          0 0 0 0 0 0
          0 0 0 0 0 0
          0 0 0 0 0 0
          0 0 0 0 0 0
          0 0 0 0 0 0
          0 0 0 0 0 0
          0 0 0 0 0 0
          0 0 0 0 0 0
          0 0 0 0 0 0
          0 0 0 0 0 0
          0 0 0 0 0 0
          0 0 0 0 0 0
          0 0 0 0 0 0
          0 0 0 0 0 0
          0 0 0 0 0 0
          0 0 0 0 0 0
          0 0 0 0 0 0
          0 0 0 0 0 0
          0 0 0 0 0 0
          0 0 0 0 0 0
          0 0 0 0 0 0
          0 0 0 0 0 0
          0 0 0 0 0 0
          0 0 0 0 0 0
          0 0 0 0 0 0
          0 0 0 0 0 0
          0 0 0 0 0 0
          0 0 0 0 0 0
          0 0 0 0 0 0
          0 0 0 0 0 0
          0 0 0 0 0 0
          0 0 0 0 0 0
          0 0 0 0 0 0
          0 0 0 0 0 0
          0 0 0 0 0 0
          0 0 0 0 0 0
          0 0 0 0 0 0
          0 0 0 0 0 0
          0 0 0 0 0 0
          0 0 0 0 0 0
          0 0 0 0 0 0
          0 0 0 0 0 0
          0 0 0 0 0 0
          0 0 0 0 0 0
          0 0 0 0 0 0
          0 0 0 0 0 0
          0 0 0 0 0 0
          0 0 0 0 0 0
          0 0 0 0 0 0
          0 0 0 0 0 0
          0 0 0 0 0 0
          0 0 0 0 0 0
          0 0 0 0 0 0
          0 0 0 0 0 0
          0 0 0 0 0 0
          0 0 0 0 0 0
          0 0 0 0 0 0
          0 0 0 0 0 0
          0 0 0 0 0 0
          0 0 0 0 0 0
          0 0 0 0 0 0
          0 0 0 0 0 0
          0 0 0 0 0 0
          0 0 0 0 0 0
          0 0 0 0 0 0
          0 0 0 0 0 0
          0 0 0 0 0 0
          0 0 0 0 0 0
          0 0 0 0 0 0
          0 0 0 0 0 0
          0 0 0 0 0 0
          0 0 0 0 0 0
          0 0 0 0 0 0
          0 0 0 0 0 0
          0 0 0 0 0 0
          0 0 0 0 0 0
          0 0 0 0 0 0
          0 0 0 0 0 0
          0 0 0 0 0 0
          0 0 0 0 0 0
          0 0 0 0 0 0
          0 0 0 0 0 0
          0 0 0 0 0 0
          0 0 0 0 0 0
          0 0 0 0 0 0
          0 0 0 0 0 0
          0 0 0 0 0 0
          0 0 0 0 0 0
          0 0 0 0 0 0
          0 0 0 0 0 0
          0 0 0 0 0 0
          0 0 0 0 0 0
          0 0 0 0 0 0
          0 0 0 0 0 0
          0 0 0 0 0 0
          0 0 0 0 0 0
          0 0 0 0 0 0
          0 0 0 0 0 0
          0 0 0 0 0 0
          0 0 0 0 0 0
          0 0 0 0 0 0
          0 0 0 0 0 0
          0 0 0 0 0 0
          0 0 0 0 0 0
          0 0 0 0 0 0
          0 0 0 0 0 0
          0 0 0 0 0 0
          0 0 0 0 0 0
          0 0 0 0 0 0
          0 0 0 0 0 0
          0 0 0 0 0 0
          0 0 0 0 0 0
          0 0 0 0 0 0
          0 0 0 0 0 0
          0 0 0 0 0 0
          0 0 0 0 0 0
          0 0 0 0 0 0
          0 0 0 0 0 0
          0 0 0 0 0 0
          0 0 0 0 0 0
          0 0 0 0 0 0
          0 0 0 0 0 0
          0 0 0 0 0 0
          0 0 0 0 0 0
          0 0 0 0 0 0
          0 0 0 0 0 0
          0 0 0 0 0 0
          0 0 0 0 0 0
          0 0 0 0 0 0
          0 0 0 0 0 0
          0 0 0 0 0 0
          0 0 0 0 0 0
          0 0 0 0 0 0
          0 0 0 0 0 0
          0 0 0 0 0 0
          0 0 0 0 0 0
          0 0 0 0 0 0
          0 0 0 0 0 0
          0 0 0 0 0 0
          0 0 0 0 0 0
          0 0 0 0 0 0
          0 0 0 0 0 0
          0 0 0 0 0 0
          0 0 0 0 0 0
          0 0 0 0 0 0
          0 0 0 0 0 0
          0 0 0 0 0 0
          0 0 0 0 0 0
          0 0 0 0 0 0
          0 0 0 0 0 0
          0 0 0 0 0 0
          0 0 0 0 0 0
          0 0 0 0 0 0
          0 0 0 0 0 0
          0 0 0 0 0 0
          0 0 0 0 0 0
          0 0 0 0 0 0
          0 0 0 0 0 0
          0 0 0 0 0 0
          0 0 0 0 0 0
          0 0 0 0 0 0
          0 0 0 0 0 0
          0 0 0 0 0 0
          0 0 0 0 0 0
          0 0 0 0 0 0
          0 0 0 0 0 0
          0 0 0 0 0 0
          0 0 0 0 0 0
          0 0 0 0 0 0
          0 0 0 0 0 0
          0 0 0 0 0 0
        </DataArray>
        <DataArray type="Float64" Name="Stress" NumberOfComponents="3" ComponentName0="sigma_xx" ComponentName1="sigma_yy" ComponentName2="sigma_xy" format="ascii" RangeMin="1.1042241398" RangeMax="40.383559962">
          0.10482563119 0.90006881087 0.65897487624 -1.2701317121 0.83829361339 0.77424128894
          -0.55483164485 0.84907290103 1.587421832 0.63627444526 0.63962529625 2.082467804
          0.35867547388 0.24072476091 2.2263696085 0.28020778449 0.17970843157 2.4750434561
          0.44861420985 0.15218700086 2.7753797373 -0.77676609878 -0.054540338091 3.0277054802
          -0.21184292815 -0.02683833999 3.2350039727 0.50846941582 0.064540482511 3.394314701
          -0.23398123602 -0.029702967031 3.4986561298 0.62707287059 0.079606489551 3.5774505012
          -9.6311751689e-06 -9.2548999642e-05 3.6048150781 -0.62707668023 -0.079643097606 3.577538213
          0.23398387889 0.029728363181 3.4987615361 -0.5084624478 -0.064473524585 3.3942651783
          0.21183014825 0.026857167497 3.2348685937 0.77670912552 0.054563353113 3.0275623349
          -0.44856862094 -0.15208734272 2.775423056 -0.28024732134 -0.17964093239 2.4750928989
          -0.35870828043 -0.24072871907 2.2264324237 -0.63627126922 -0.63969202334 2.082529917
          0.55475934666 -0.84921381864 1.5874779746 1.2701118644 -0.83849223912 0.77430589302
          -0.10484911613 -0.90025628212 0.65903421772 -0.28426034937 0.76388164478 0.74497774299
          -0.081162754859 1.0123123442 1.4229041992 -0.91484584756 0.73521176968 1.7134926991
          -0.069417671687 0.54244834521 2.1963812407 -0.20857268482 0.23624207127 2.2899942976
          -0.20749672314 0.15796176038 2.5498222304 -0.040542307492 0.14430319858 2.8800197225
          -0.79641332657 -0.0090710462153 3.1325774124 -0.36265985708 -0.0079169009116 3.3581826422
          0.21329751984 0.057138768774 3.5512976339 -0.28211377615 -0.030563111745 3.6716040819
          0.38489444598 0.053367387596 3.7523775721 8.8362293058e-07 1.8913908238e-05 3.7649087613
          -0.38489389197 -0.05334786915 3.7523861686 0.28211200193 0.030552736945 3.6716227209
          -0.21329589051 -0.057113059737 3.5514425732 0.36266785007 0.0079992180528 3.3583261695
          0.79639378414 0.0091988380812 3.1327287633 0.040508405963 -0.14416166447 2.8800533586
          0.20746041643 -0.15789528079 2.5496256917 0.20860077408 -0.2362347268 2.289800654
          0.069441987698 -0.54239320858 2.1961768562 0.91478065221 -0.73536698239 1.7135443241
          0.081089000035 -1.0125719222 1.4229605744 0.28424760628 -0.76414156762 0.74500026842
          -0.92984578764 0.80943905195 0.83894308776 -0.81481029061 0.89959854041 1.5442430007
          -1.2596077089 0.60776237071 1.8212548649 -0.67473479932 0.42696764692 2.33709786
          -0.64272506428 0.22474902319 2.1391387352 -0.57595768438 0.18923663384 2.4519105383
          -0.4011812865 0.18979864702 2.8362486331 -0.16396685419 0.16975043381 3.1141275498
          -0.46467097861 0.02646575436 3.362918836 -0.09247839574 0.040631355602 3.5827376308
          -0.31545638069 -0.026093301727 3.7159948104 0.1106257154 0.030393433505 3.8176977734
          -1.5088851683e-06 -1.1869431513e-05 3.8427911542 -0.11062682524 -0.030387728717 3.8177207998
          0.31544733562 0.026044543878 3.7160161419 0.092477413205 -0.040592574628 3.5827633841
          0.46467505183 -0.026368903723 3.3629476454 0.16397673402 -0.16958885512 3.1141623945
          0.40120305175 -0.18964186883 2.8362957301 0.57596959792 -0.18912660383 2.4519711356
          0.64273782807 -0.22471418653 2.1392012918 0.67476982925 -0.42691493145 2.3369883671
          1.2595817605 -0.60793344579 1.8213006603 0.81477750858 -0.89982827669 1.5442647678
          0.92982153714 -0.80963964288 0.83894298495 -1.6203580518 0.91806659384 0.75689776179
          -1.7970526656 -0.41167834388 1.3220640094 -1.5139137652 -0.14258848373 1.9520759592
          -1.3018063702 -0.0076992731883 2.1743159337 -1.0515477957 0.14066162786 2.3794069139
          -0.92102993438 0.12377699348 2.7186228109 -0.75750501932 0.12001881798 3.1311960908
          -0.5502205104 0.11037298781 3.4196789328 -0.56615938844 0.030746501881 3.667291186
          -0.33308078763 0.030677119588 3.9021225046 -0.33111437433 -0.0071258553147 4.0431337238
          -0.046249093154 0.017871536065 4.1484311607 -7.9806447934e-06 -5.0647732645e-05 4.1775086208
          0.046244364105 -0.01789160685 4.1484248266 0.3311112026 0.007131090094 4.0431423277
          0.33308526437 -0.030601255738 3.9021311885 0.56615899973 -0.03068224616 3.6673248019
          0.55022402743 -0.11026370347 3.4197056335 0.75751608617 -0.11992286154 3.1312151964
          0.9209927574 -0.12372212964 2.7186195149 1.051522589 -0.14065415471 2.3793947607
          1.3017556699 0.0076408620499 2.1743033653 1.5138519728 0.14244511079 1.9520720013
          1.797011174 0.41148007 1.3220652473 1.6203209866 -0.91824110509 0.75689209073
          -2.2325175438 1.0429331628 1.2279641588 -2.5051280222 -0.28108292539 1.1503368002
          -2.2118216741 -0.11787311753 1.8370949899 -1.7716281101 -0.00024082792177 2.1365148445
          -1.4358301308 0.13972419273 2.3721072466 -1.2429830343 0.16087491199 2.717199873
          -1.040318237 0.17903452941 3.0996973207 -0.88830411474 0.1566014998 3.3720450336
          -0.72412668636 0.10100991855 3.6147888913 -0.52476917927 0.059748742225 3.8355971811
          -0.37059222414 0.017545721121 3.9813437318 -0.16211061172 0.011197019457 4.0728023428
          3.110245224e-06 1.9358175907e-05 4.104327645 0.16211329181 -0.011180338519 4.0728153404
          0.37058751762 -0.017575014473 3.9813457233 0.52476665246 -0.059764469114 3.8355877894
          0.72412864557 -0.10099772445 3.6147736866 0.88830780564 -0.15656760552 3.3720215511
          1.0403225055 -0.17898254325 3.099669961 1.24297226 -0.16084925285 2.7171543807
          1.4358250794 -0.13973084651 2.3720499756 1.7716143527 0.00019434194253 2.1364596977
          2.2118223194 0.11777462644 1.8370628887 2.50511763 0.28092641813 1.1503234185
          2.2324954898 -1.0430755637 1.2279563142 -2.9989435125 -0.47632853011 0.74288375352
          -3.0371291614 -0.21530290922 1.351823645 -2.6989443396 -0.073355644091 1.9645781282
          -2.1879356778 0.054473735423 2.1801884563 -1.7973230011 0.20535896962 2.3498254871
          -1.5524275418 0.24873467561 2.6931506913 -1.3392282881 0.30696575306 3.0657576461
          -1.142599631 0.28176391919 3.3493834602 -0.91037216474 0.21745230553 3.5976460504
          -0.67361498605 0.13785633239 3.811885193 -0.45354816115 0.059775793391 3.951778299
          -0.20003639048 0.046195244087 4.0276609796 9.6378792486e-06 6.1279889242e-05 4.0492204751
          0.2000430921 -0.046152633636 4.0276647231 0.45354671828 -0.059784967457 3.9517769011
          0.67361453762 -0.13785918363 3.8118839641 0.91038336713 -0.21738107817 3.5976369435
          1.1426091845 -0.28171422548 3.3493478781 1.3392414841 -0.30690756514 3.0657073576
          1.5524272079 -0.24871652882 2.6930782683 1.797326626 -0.20536062591 2.3497449014
          2.1879713518 -0.054416456532 2.1801095073 2.6989354624 0.073286395964 1.9645240605
          3.0371038239 0.21516579994 1.3517901387 2.9989223376 0.47618652976 0.74286421791
          -3.5477529673 -0.48607642365 0.95334914458 -3.5664210735 -0.18178325247 1.5348346104
          -3.1778828259 0.0038685199415 1.7570854689 -2.6071027609 0.1237120012 2.0964513608
          -2.1543725949 0.27854313937 2.3281031048 -1.8532319271 0.32409076531 2.6687504088
          -1.5788435859 0.38738123413 3.027960069 -1.3404795095 0.36359795108 3.3049927869
          -1.0717422757 0.27156755548 3.5563130073 -0.79902651919 0.14030809544 3.7880356202
          -0.53325285271 0.017943715338 3.9203267069 -0.24177202794 -0.00039218805638 3.980676113
          -5.2090505109e-07 -3.3120295013e-06 3.9980646498 0.24176922158 0.00037434460711 3.9806712275
          0.53325813746 -0.017910113648 3.9203207587 0.7990314613 -0.14027667231 3.788018464
          1.071749663 -0.27153163491 3.5562846456 1.3404776537 -0.36358403534 3.3049551067
          1.5788398678 -0.38737355599 3.0279089111 1.8532438487 -0.32408743467 2.6686770892
          2.1543800686 -0.27854087068 2.3280314934 2.6071486358 -0.1236211829 2.0963669865
          3.1778654184 -0.0039057778984 1.7570322578 3.5664327945 0.18172083349 1.53479669
          3.5477570171 0.48600092895 0.95332571326 -3.8400933276 1.0334957157 1.0540034451
          -4.0769516646 -0.21133385635 1.0925045615 -3.6151752241 0.033446998581 1.8287803094
          -2.9792614093 0.18345515217 2.1367844407 -2.476895921 0.36308104955 2.3367487853
          -2.150394747 0.41678804397 2.6869460895 -1.8519831568 0.43124700986 3.0289615715
          -1.5520995158 0.40976786611 3.3116920695 -1.2664411397 0.30893293897 3.5539779717
          -0.95446242029 0.15889599049 3.7820613025 -0.65758360941 -0.0023344547537 3.9240489409
          -0.28796588624 -0.015577133819 3.9830382424 -8.2190951937e-06 -5.2258916988e-05 4.0120011097
          0.28796302195 0.015558922041 3.9830316869 0.65757852957 0.0023021560086 3.9240367514
          0.95446541416 -0.15887695479 3.7820515352 1.2664293645 -0.30901885747 3.5539505771
          1.5520917855 -0.40984273222 3.3116526752 1.8519703979 -0.43129681484 3.0289088074
          2.1503835985 -0.41680855752 2.6868795944 2.4768726211 -0.36310890586 2.336673288
          2.979228767 -0.18358011236 2.1367016383 3.6151581264 -0.033414127046 1.8287261574
          4.0769527733 0.21139748105 1.0924631032 3.8401105229 -1.0334180102 1.0539777714
          -4.4290948177 0.82802201546 1.1356919612 -4.6884828246 -0.3010052919 1.2071448929
          -4.132629916 0.02009027094 1.9404749236 -3.4010540613 0.24009260436 2.1965735101
          -2.817398331 0.44363336059 2.3641120584 -2.4337817063 0.48166543827 2.6972467007
          -2.0814301235 0.4740724718 3.0246538541 -1.7524353 0.41770669933 3.3122592093
          -1.4353010306 0.30879104283 3.5272813605 -1.0670529272 0.16381460865 3.7179795844
          -0.76320650113 -0.0022837168138 3.8670132484 -0.34410321156 -0.021364766492 3.9425525164
          -4.5464258183e-06 -2.8907228945e-05 3.9575632487 0.34409807965 0.021332136665 3.9425577802
          0.76319989693 0.0022417257932 3.8670195705 1.0670461712 -0.1638575648 3.7179874576
          1.43528959 -0.30886378459 3.5272843773 1.7524247197 -0.41777397098 3.3122491372
          2.081419305 -0.4741412581 3.024620553 2.4337750248 -0.48170792085 2.6971897604
          2.8173944983 -0.44365668645 2.3640393359 3.4010362087 -0.24018268296 2.1964981517
          4.1326479889 -0.019994410323 1.9404230602 4.6885017472 0.30114179831 1.207112639
          4.4291128001 -0.82788034735 1.1356735468 -5.004925922 0.52837517054 1.1115646991
          -5.1317047841 0.66519699662 1.2609457061 -4.6260091253 -0.029801987769 1.6749141553
          -3.8102958482 0.26194694629 2.1024538295 -3.1361978343 0.5160891688 2.3599559543
          -2.7325918898 0.5384033861 2.6708785081 -2.3371737752 0.5179300598 3.004851692
          -1.9560109598 0.42280983618 3.2814941892 -1.5930626949 0.29925666389 3.504283596
          -1.1943439482 0.15727199754 3.6836105904 -0.81356865855 0.018307039846 3.8183124604
          -0.39116143533 -0.0090447925282 3.9141283226 -6.2860970152e-08 -3.9967845401e-07 3.9334876
          0.39116335726 0.0090570126191 3.9141299555 0.81356474617 -0.018331915618 3.818318198
          1.1943373852 -0.15731372657 3.6836251174 1.5930518519 -0.29932560655 3.5043044918
          1.9559946725 -0.42291339459 3.2815087111 2.3371597943 -0.51801895326 3.0048482638
          2.7325851463 -0.5384462628 2.6708575268 3.1361980317 -0.51608796714 2.3599186463
          3.8103059727 -0.26189586108 2.1024137981 4.6260258927 0.029890923727 1.6748841464
          5.1317256223 -0.6650466709 1.2609311366 5.0049437219 -0.5282349398 1.1115583897
          -5.687070695 0.067019483828 1.0245318252 -5.8278945405 0.42695326649 1.2458167043
          -5.1790595433 0.44504042454 1.7110688319 -4.3563922455 0.22184150124 2.1378775347
          -3.587262828 0.52927984891 2.3555156534 -3.1161269256 0.56436031771 2.6639885961
          -2.6602497292 0.52140613671 2.9839282591 -2.2125686189 0.41617477159 3.2682702841
          -1.7761013109 0.26610449547 3.4911760711 -1.3303375541 0.15192507884 3.6635127915
          -0.87203042391 0.061473076564 3.7964140299 -0.43668734446 0.033132591184 3.9064859972
          -7.3570699014e-06 -4.677795298e-05 3.9189550794 0.43668780528 -0.033129661168 3.9064766361
          0.87203554758 -0.061440499085 3.7964110032 1.3303451376 -0.15187686113 3.663517446
          1.776092599 -0.26615988793 3.4911934218 2.2125515883 -0.41628305557 3.2682998907
          2.6602341055 -0.52150547583 2.9839644575 3.1161161942 -0.56442855049 2.6640320859
          3.5872598591 -0.52929791769 2.3555502684 4.3563990025 -0.22180740722 2.1379056832
          5.1790754408 -0.44495610223 1.7110888376 5.8279136877 -0.42681513965 1.2458282678
          5.6870892661 -0.066873177534 1.0245351041 -6.1291168059 1.0540521242 0.82583234102
          -6.5033171363 0.082842169829 1.1543069735 -5.7906168975 0.25695920345 1.6691271271
          -4.8009290054 0.39854968261 2.1279292062 -3.9758379347 0.54628063974 2.3473283503
          -3.4459700103 0.57943417165 2.6744389704 -2.9425951963 0.50578566604 2.9788319105
          -2.4487760635 0.41062810621 3.2734471472 -1.9517035461 0.28249533337 3.5197747951
          -1.475340954 0.16344135717 3.6930881582 -0.9386708532 0.10647456495 3.8372017609
          -0.47673537211 0.037852122283 3.9425982676 2.3243489476e-06 1.4778755569e-05 3.9840158385
          0.47673776549 -0.037836904611 3.9426113146 0.93867403262 -0.1064543494 3.8372132828
          1.4753370987 -0.16346586995 3.6930777611 1.9516978454 -0.28253157973 3.5197916142
          2.4487637237 -0.41070656503 3.2734859005 2.9425813549 -0.50587367293 2.9788972111
          3.4459572875 -0.57951506604 2.6745253468 3.9758294189 -0.54633246746 2.3474218456
          4.8009074805 -0.39865829081 2.128004665 5.7906289913 -0.25689505653 1.6691773377
          6.5033317806 -0.082736526803 1.154333013 6.1291327118 -1.0539268153 0.8258425546
          -6.752598478 0.25262619018 1.2243767727 -7.0028023587 0.69809403575 1.4963482143
          -6.349803517 0.046397802317 1.9187473998 -5.2478464874 0.34880189851 2.1292809299
          -4.2952762815 0.60189791817 2.3592765687 -3.7385924018 0.56393845218 2.6875504248
          -3.1804637183 0.49543066993 2.9983862493 -2.6378833689 0.37185672148 3.2879218413
          -2.1233345193 0.24765609078 3.5276368552 -1.6091364787 0.15293111231 3.7238790037
          -1.0508041991 0.072155545274 3.8716948655 -0.53199975323 0.025324230063 3.9671651017
          -9.2474640666e-07 -5.8797407337e-06 4.0062539441 0.53200093659 -0.025316705971 3.9671692426
          1.0508024993 -0.072166352797 3.8717039745 1.6091390062 -0.15291504157 3.723881623
          2.1233337728 -0.24766083675 3.5276497148 2.6378767131 -0.37189904077 3.2879526836
          3.180452848 -0.49549978582 2.9984450519 3.7385789246 -0.56402414336 2.6876316462
          4.2952634278 -0.60197614576 2.3593645975 5.2478154522 -0.34895849273 2.1293604332
          6.3498050928 -0.046389443772 1.9187986145 7.0028085522 -0.6980493558 1.496378258
          6.7526101789 -0.25253400846 1.224393418 -7.2162597265 0.81034938056 0.84014946791
          -7.6379874178 0.026875542826 1.2555871147 -6.7899326632 0.34747577166 1.809144918
          -5.5935340482 0.52248172732 2.1015313106 -4.6023274328 0.65772537195 2.3588031836
          -3.9603547494 0.63391066418 2.6833339282 -3.3614518371 0.54147424199 3.0118906368
          -2.8095714641 0.43034203762 3.2989593949 -2.2680303654 0.31785594936 3.5410223238
          -1.7040155475 0.20545610263 3.7491836835 -1.1346465081 0.12721857978 3.9046134545
          -0.5673531781 0.070429633494 4.0054559584 5.9761704221e-06 3.799790654e-05 4.0560439534
          0.5673570151 -0.070405236979 4.0054439379 1.1346434526 -0.12723800711 3.9045894158
          1.7040145073 -0.20546271667 3.7491684309 2.2680352963 -0.31782459726 3.5410265872
          2.8095729485 -0.43033259926 3.2989775041 3.3614516903 -0.54147517556 3.0119225606
          3.9603489247 -0.63394769947 2.6833813081 4.6023211277 -0.65776374502 2.3588559671
          5.5935260093 -0.52252228918 2.1015892824 6.7899245217 -0.34751895534 1.8091867174
          7.6379817454 -0.026916462984 1.2556194735 7.2162621572 -0.81033023109 0.84017201652
          -7.5477829844 1.1799450288 1.0940423608 -7.966608158 0.37764238813 1.5308055292
          -7.0614709906 0.57621287899 1.7027864355 -5.9080301468 0.40812077208 2.2112668601
          -4.8215257241 0.7079189283 2.3660019418 -4.2254667547 0.66086731883 2.704807874
          -3.6334637301 0.56566121516 3.0188708498 -3.0455086218 0.43992554006 3.3054142706
          -2.4328774773 0.34443408486 3.574121173 -1.8368239377 0.24749380032 3.777490457
          -1.2270670838 0.17707327315 3.9351076241 -0.59765564514 0.10506544919 4.0294023104
          4.1781827064e-06 2.6565881505e-05 4.0667342782 0.59765627415 -0.1050614498 4.0293967868
          1.2270664299 -0.1770774304 3.9350979089 1.8368274363 -0.24747155507 3.7774734009
          2.4328903722 -0.34435209648 3.5741233845 3.0455189407 -0.43985993006 3.305418737
          3.6334674833 -0.56563735122 3.0188842477 4.2254632673 -0.66088949299 2.7048269372
          4.8215202268 -0.70795238534 2.3660267999 5.9080404504 -0.40806878336 2.2112991098
          7.0614571387 -0.5762863516 1.702814853 7.9665935035 -0.3777481048 1.5308292906
          7.5477731498 -1.1800225069 1.0940620822 -8.1864845528 -0.18925961159 0.60417562396
          -8.3766932383 0.57237120884 1.2295123272 -7.3928445753 0.71263377214 1.9095821327
          -6.2236614264 0.47110722803 2.1621470002 -5.1031438086 0.75785749143 2.3561631209
          -4.5031702602 0.70528735389 2.6898618599 -3.8702794535 0.64290161584 3.0388760146
          -3.2361358977 0.51910180667 3.3246588008 -2.5525135345 0.44897380367 3.575846368
          -1.9166816243 0.34171015426 3.8001034387 -1.2597877588 0.26916115257 3.9331001971
          -0.64369339839 0.17906318966 4.0294827376 -1.0061339762e-06 -6.3972281153e-06 4.0577829997
          0.64369171157 -0.17907391477 4.0294825873 1.2597964419 -0.26910594391 3.9331016985
          1.9166896104 -0.34165937692 3.8000977646 2.5525230716 -0.44891316437 3.575844939
          3.2361447386 -0.51904559391 3.3246454656 3.870284851 -0.64286729699 3.0388664051
          4.5031677889 -0.70530306677 2.6898625356 5.1031389218 -0.75788723218 2.3561695243
          6.2236513109 -0.47115826743 2.1621623828 7.3928297991 -0.71271214667 1.9095923441
          8.3766782184 -0.57247956102 1.2295186489 8.1864728017 0.18916703413 0.60417948948
          -8.5024064101 1.3636475036 0.7753170172 -8.885896224 0.58953063247 1.4446414513
          -7.8596345643 0.74001422366 1.7553585232 -6.6052690147 0.49947418474 2.1313116748
          -5.4353641858 0.78969197455 2.3412453697 -4.7856294931 0.76076876717 2.6720085986
          -4.1583386472 0.67721305293 3.019509117 -3.4775919926 0.54800467715 3.3057884196
          -2.7497386463 0.49581515124 3.577746752 -2.0592463346 0.39355813759 3.7996700548
          -1.3829344507 0.31382892169 3.9472388668 -0.68711903651 0.21589927313 4.043513369
          -5.5882736776e-06 -3.5531531134e-05 4.0816676742 0.68710610876 -0.21598147075 4.0435333458
          1.382941203 -0.31378598908 3.9472378107 2.0592527833 -0.39351713557 3.7996717879
          2.7497443048 -0.49577917305 3.5777469731 3.4776012864 -0.54794558489 3.3057661139
          4.1583438011 -0.67718028323 3.0194861101 4.785627025 -0.76078445997 2.6719883535
          5.4353620802 -0.78970478915 2.341226427 6.6052608024 -0.49951562153 2.1313012003
          7.8596218874 -0.74008146356 1.7553442311 8.8858829111 -0.58962667078 1.4446277911
          8.5023975091 -1.3637176271 0.77530549885 -9.1662283919 1.1014438632 0.84518173305
          -9.499444011 0.44077251487 1.6040918213 -8.3876966157 0.67192001084 1.9010526021
          -7.0195098068 0.4985129585 2.195927924 -5.7631040364 0.81964705126 2.3631876565
          -5.0659305166 0.76702948915 2.6802635283 -4.3747579661 0.68252576929 3.0292942446
          -3.7026279916 0.58350473694 3.3260863903 -2.9452982723 0.53250549404 3.5864723697
          -2.2230707865 0.42685522658 3.7823647218 -1.4805959118 0.34431776536 3.9223814763
          -0.74325874226 0.22240264145 4.0110221741 -7.4122144546e-07 -4.7128337601e-06 4.0393165841
          0.74324356147 -0.22249916443 4.0110488524 1.4806142833 -0.34420095497 3.922381657
          2.2230726812 -0.42684317938 3.7823849165 2.9452974518 -0.53251071083 3.5864845111
          3.7026289526 -0.58349862667 3.3260769605 4.3747616669 -0.68250223869 3.0292714121
          5.0659341433 -0.76700642972 2.6802226574 5.7630997785 -0.81967296526 2.3631463642
          7.0195035458 -0.49854454953 2.1958879828 8.3876874148 -0.67196881364 1.9010189113
          9.4994366919 -0.44082531431 1.604069051 9.1662254328 -1.1014671752 0.84516805995
          -9.8135102691 0.55691250931 0.82252529195 -9.9809759705 1.2003864241 1.1090285893
          -8.9513972101 0.50591474591 1.6553646145 -7.436189392 0.44890402402 2.0731742009
          -6.1157402174 0.83570774331 2.3172463179 -5.3537487621 0.79373112888 2.649636279
          -4.6548748159 0.69708652841 3.0080742983 -3.9456197885 0.60377638505 3.328540852
          -3.1454554918 0.53691213429 3.6009323389 -2.3630759264 0.45700055955 3.8062467625
          -1.5521233467 0.34044297068 3.938697283 -0.76107682741 0.19307570576 4.0233914229
          6.494525429e-07 4.1293925268e-06 4.0134430765 0.76108634456 -0.19301519345 4.0233938121
          1.5521288683 -0.3404078627 3.9387093107 2.3630792784 -0.45697924667 3.806265624
          3.1454493382 -0.53695126013 3.6009452755 3.945621164 -0.60376763886 3.3285408452
          4.6548769653 -0.69707286157 3.0080564906 5.3537446906 -0.79375701657 2.6495946923
          6.1157302629 -0.83576832655 2.3172009672 7.4361858358 -0.44892196738 2.0731316952
          8.9513938626 -0.50593250182 1.6553373553 9.9809760075 -1.2003861571 1.1090146134
          9.8135130762 -0.55689039484 0.82251904099 -10.343902911 1.3563082382 0.66137112793
          -10.69573549 0.63138295027 1.6485830983 -9.6019467483 0.21008393928 1.7047362491
          -7.8660971888 0.59567995225 2.1174662833 -6.5003590336 0.87469319832 2.3041760689
          -5.6684416484 0.83717115501 2.6325412158 -4.9091671686 0.68873330029 2.9815044251
          -4.1576982059 0.5984205805 3.3318881936 -3.3318763546 0.53024980519 3.6135103723
          -2.4589313178 0.4305488084 3.8124262509 -1.6347583488 0.30658978419 3.9313375667
          -0.78390150934 0.17504676588 3.97954855 1.7992230069e-06 1.1439891797e-05 3.9816339446
          0.78391072699 -0.17498815792 3.9795430836 1.6347690242 -0.30652190764 3.9313396873
          2.4589343757 -0.4305293658 3.8124333503 3.3318660531 -0.53031530422 3.6135119595
          4.15769694 -0.59842862949 3.3318895485 4.9091611517 -0.68877155734 2.9815031678
          5.6684358564 -0.83720798209 2.6325291651 6.5003532695 -0.87472827892 2.3041640123
          7.8660942715 -0.595694672 2.1174505064 9.6019480757 -0.21007689884 1.7047320299
          10.695737864 -0.63136582837 1.6485819173 10.343906434 -1.3562804825 0.66137239622
          -11.031485264 0.17809389438 1.146690954 -11.222018507 0.99621980272 1.5809155514
          -10.044249375 0.4106205285 1.7198497877 -8.3168824423 0.65862636529 2.1279428781
          -6.8784884426 0.92253535849 2.2921680128 -5.9880089872 0.89816199847 2.6148425811
          -5.1454098327 0.78244942461 2.9637210118 -4.3107521038 0.6892984656 3.3173722616
          -3.4500652876 0.57256549977 3.6109184746 -2.5473523967 0.45381246616 3.8156613828
          -1.6709518917 0.31930393863 3.9344924966 -0.82928586888 0.15988129038 3.9777135527
          9.3220816896e-06 5.9271999726e-05 3.9784162688 0.82930035119 -0.15978920843 3.9777065398
          1.6709554018 -0.31928162097 3.9344869444 2.5473546979 -0.45379783418 3.8156568423
          3.4500566134 -0.57262065278 3.6109182514 4.3107547379 -0.68928171737 3.3173771112
          5.1454126383 -0.78243158574 2.9637264614 5.9879967661 -0.89823970308 2.6148492153
          6.8784806816 -0.92258259212 2.2921836056 8.3168798263 -0.65863956451 2.1279513102
          10.04424969 -0.41061885906 1.7198562137 11.222020353 -0.99620648823 1.5809202615
          11.03148808 -0.17807170402 1.1466948582 -11.559277 0.332283902 0.86056523066
          -11.779025204 1.1180523673 1.4425063494 -10.594204591 0.49064821146 1.6897552398
          -8.7986248455 0.49162416752 1.9961288384 -7.2295307323 0.99006270114 2.2752763399
          -6.2555016013 0.96023829989 2.5983472543 -5.363671088 0.82019285459 2.9522605419
          -4.4237399204 0.72574752473 3.2898059645 -3.5784978521 0.55811636226 3.5851597179
          -2.6527022728 0.44225083418 3.8119478744 -1.7845764 0.26496838269 3.9299893779
          -0.8915889709 0.16705970967 3.9826554691 3.2790507578e-06 2.0848984729e-05 3.9802866491
          0.89160384463 -0.16696513902 3.9826519681 1.7845827982 -0.26492770159 3.9299846945
          2.6527099959 -0.44220172879 3.8119404921 3.5784940809 -0.55814034039 3.5851548101
          4.423743063 -0.72572754357 3.2898092827 5.3636728246 -0.82018181291 2.952269629
          6.2554990341 -0.96025462269 2.5983670209 7.2295219859 -0.99011593192 2.2753036568
          8.7986238512 -0.49162918444 1.9961568712 10.594203173 -0.4906557319 1.6897744832
          11.77902462 -1.1180565784 1.4425172827 11.559277 -0.332283902 0.86056875081
          -12.026570662 1.6244765813 1.1522109592 -12.45785869 0.98040935049 1.2603521076
          -11.199561508 0.44902681223 1.6409319802 -9.2187263581 0.75273429428 2.0294599923
          -7.5812571744 1.0533137981 2.2688689075 -6.5240527652 1.0325319189 2.6107299142
          -5.5471727749 0.87987726337 2.951621731 -4.5845607977 0.76074075074 3.2816980617
          -3.7051262252 0.61844117812 3.5761011366 -2.7953688368 0.44608103365 3.7968462141
          -1.8742122073 0.27867143422 3.9287828385 -0.95216663184 0.16246768677 3.9885855414
          3.7077261755e-06 2.3574602969e-05 3.9961377345 0.95218026832 -0.16238098281 3.9885829705
          1.8742209543 -0.27861581886 3.9287715604 2.7953741563 -0.44604721099 3.7968255991
          3.7051230466 -0.61846138857 3.5760801554 4.5845658025 -0.76070892894 3.2816911365
          5.5471752517 -0.87986151514 2.9516220089 6.524047635 -1.032564538 2.6107510458
          7.5812524218 -1.0533427228 2.268893791 9.218724045 -0.75274596543 2.0294868926
          11.199557576 -0.44904766891 1.6409509199 12.457854318 -0.98044088759 1.2603631968
          12.026566998 -1.6245054408 1.1522166234 -12.52202254 1.1119377405 0.66487930342
          -12.964890515 0.66759207767 1.5552684585 -11.666720081 0.31488114789 1.8932437023
          -9.617189415 0.71214328555 2.0451636876 -7.8865268221 1.0905219553 2.2751306811
          -6.8250027684 1.05684839 2.6246552637 -5.8041769243 0.9028559077 2.9611737133
          -4.8382368979 0.76769908259 3.2775771585 -3.898856641 0.6430043108 3.5661876694
          -2.9159374925 0.45686561088 3.7833659842 -1.9587954436 0.27970545122 3.9218701946
          -0.96716314246 0.1477230058 4.0099394418 1.7347986402e-06 1.1030269778e-05 4.0395479511
          0.96715871016 -0.14775118729 4.0099237623 1.9588177779 -0.27956344431 3.9218705366
          2.9159377669 -0.45686386571 3.7833445298 3.8988594994 -0.64298613639 3.5661640559
          4.8382426661 -0.76766240705 3.2775626196 5.8041798823 -0.9028371 2.9611584428
          6.8250030361 -1.0568466876 2.6246533813 7.8865265259 -1.0905237577 2.2751374266
          9.6171862267 -0.71215937252 2.0451683634 11.666714183 -0.31491243536 1.8932485931
          12.96488377 -0.66764073668 1.5552747166 12.522015354 -1.1119943558 0.66488623598
          -12.933177935 1.8205802037 0.83030270325 -13.370661077 1.1529859927 1.2617486532
          -12.089378354 0.62203283585 1.8065460529 -10.037984144 0.65896302114 2.0665331549
          -8.245540184 1.1499370369 2.3022089203 -7.1269943015 1.1012201711 2.6348047882
          -6.0928242797 0.90232455517 2.9773968677 -5.0392493786 0.77751322376 3.2914471541
          -4.0561631884 0.62838965527 3.5491251588 -2.9952459719 0.48604657618 3.7488907975
          -1.9735774721 0.2822209383 3.8919225193 -0.99302074153 0.17250518363 3.9742030107
          -5.2153430276e-07 -3.3160148099e-06 4.0133721284 0.99301985304 -0.17251083282 3.9741822724
          1.9735849693 -0.28217326925 3.8919207422 2.9952480676 -0.48603325169 3.7488729142
          4.0561716645 -0.62833576211 3.5491040743 5.039257032 -0.77746456116 3.2914330826
          6.0928300845 -0.90228764679 2.9773863789 7.1269987822 -1.101191682 2.6347959122
          8.2455408324 -1.1499330906 2.302196349 10.037980677 -0.65898051454 2.0665287377
          12.089371301 -0.62207024591 1.806543572 13.370652996 -1.1530442851 1.2617474721
          12.933168153 -1.8206572661 0.83030397155 -13.612746321 0.52575513416 0.91230426
          -13.914554473 1.4454310452 1.473620409 -12.546435037 0.76512318484 1.6970043447
          -10.443097619 0.72481807563 2.1817320334 -8.5675866255 1.154189141 2.2998135961
          -7.4238273518 1.1503442176 2.6415431489 -6.3174216611 0.97460056886 2.970174441
          -5.2400163761 0.78734794663 3.3007085223 -4.1716966923 0.66857266658 3.5682345917
          -3.0922304843 0.5172129608 3.7447370994 -2.0519819451 0.34784268583 3.8866706155
          -1.0087254556 0.19904717995 3.9864584877 -6.6756310131e-06 -4.2445202554e-05 4.0411306064
          1.0087268943 -0.19903803219 3.9864613986 2.0519823433 -0.347840154 3.886662186
          3.0922328225 -0.51719809397 3.7447293434 4.1717033045 -0.6685306248 3.568214182
          5.2400231795 -0.78730468943 3.3006926161 6.3174255151 -0.97457606405 2.9701613087
          7.4238305699 -1.1503237567 2.6415218192 8.567590181 -1.1541675016 2.2997896725
          10.443094611 -0.72483325242 2.181718454 12.546428935 -0.76515555135 1.6969936699
          13.914547463 -1.4454816125 1.4736123259 13.61273851 -0.52581667542 0.91229732744
          -14.180481729 0.44161220471 0.94716638035 -14.455187547 1.4225021304 1.6205546079
          -13.008165685 0.73845957477 1.8869917892 -10.804510373 0.70255916403 2.1682967306
          -8.834968053 1.1729225676 2.3291548674 -7.6360093271 1.1813232383 2.6450427532
          -6.5021725919 1.0195017616 2.9829178932 -5.3822604574 0.8263362152 3.3195222993
          -4.2990241632 0.70779051929 3.5646821298 -3.2303930635 0.54183905823 3.7565207865
          -2.1463117416 0.3887304758 3.8910881977 -1.0630633074 0.22399131788 4.0013836722
          2.6852667925e-06 1.7073567859e-05 4.0424957726 1.0630528779 -0.22405763136 4.0013877616
          2.1463123875 -0.38872636888 3.8910836652 3.2303925688 -0.54184220331 3.7565132179
          4.2990223675 -0.70780193661 3.5646592079 5.3822640454 -0.82631340223 3.3195052051
          6.5021778831 -1.0194681189 2.9828918036 7.6360103989 -1.1813164235 2.6450184715
          8.8349707858 -1.1729059356 2.329127297 10.804511994 -0.70255098173 2.1682691
          13.008163952 -0.73846876466 1.8869710816 14.455185118 -1.4225196559 1.6205413268
          14.180478912 -0.44163439508 0.94715641943 -14.586518095 1.5292843289 0.84094885569
          -15.05577386 1.080377113 1.1472069029 -13.512506898 0.5709671501 1.6611339067
          -11.18356686 0.63542418193 2.120695234 -9.1177494643 1.21707702 2.310062936
          -7.8730357528 1.2190140173 2.6458742439 -6.7220875621 1.0606021582 2.9792355712
          -5.5567503907 0.8779736014 3.3074665253 -4.4247664192 0.74152266492 3.5553889996
          -3.3437338726 0.60328405507 3.7515328641 -2.2395097677 0.45047050001 3.8876399615
          -1.13063494 0.26427885555 3.9830028287 3.5144806425e-06 2.2345912185e-05 4.0389395565
          1.1306393079 -0.26425108305 3.9829993425 2.2394978068 -0.45054655061 3.8876465654
          3.3437239791 -0.60334696065 3.7515296462 4.4247655671 -0.74152808305 3.5553773828
          5.5567505148 -0.87797281191 3.3074598672 6.7220850071 -1.0606184035 2.979225826
          7.8730331599 -1.2190305033 2.6458593622 9.1177465614 -1.2170946873 2.3100360544
          11.183566575 -0.63542562362 2.1206765765 13.512507416 -0.57096440161 1.6611198053
          15.05577597 -1.0803618902 1.1471949095 14.586521537 -1.5292572125 0.84094143135
          -15.257943251 0.58356611112 0.64742058728 -15.701831586 0.49616794326 1.1364733066
          -13.930335202 0.82610551943 1.7404126584 -11.555792863 0.77301853514 2.1785187873
          -9.4453932731 1.2197836706 2.3195179687 -8.1649081839 1.1993710686 2.6487949988
          -6.960770669 1.0650918676 2.9993389977 -5.7759247125 0.93464557246 3.3045552025
          -4.6071127374 0.77274247055 3.5655664942 -3.4785384561 0.58829858836 3.7480107755
          -2.3273614774 0.44774688869 3.8768098212 -1.1628087091 0.25086079528 3.9689070447
          3.2584965511e-07 2.0718405584e-06 4.0020734264 1.1627989165 -0.25092305899 3.9689119763
          2.3273709892 -0.44768641053 3.8768048954 3.4785372266 -0.58830640603 3.7480140035
          4.6071133846 -0.77273835583 3.5655741517 5.7759223864 -0.9346603626 3.3045535373
          6.9607724936 -1.0650802664 2.9993301473 8.1649103542 -1.1993572691 2.6487780573
          9.4453937436 -1.2197808071 2.3194911602 11.555794198 -0.77301180272 2.1784976952
          13.93033812 -0.8260900451 1.7403989133 15.70183503 -0.4961430962 1.1364683197
          15.257948744 -0.58352283426 0.64741971146 -15.7729883 0.77791997746 1.0661802935
          -16.23118121 0.65179779139 1.0530361449 -14.516682922 0.35698928602 1.7928143358
          -11.942444234 0.86081814382 2.0985469666 -9.7623111686 1.2936094259 2.3307560813
          -8.4697529725 1.2559812269 2.6848546332 -7.2415398183 1.1218779507 3.0180633922
          -6.0072629018 0.98016239773 3.3179010689 -4.7970072733 0.8362490005 3.5575524738
          -3.6232846592 0.65035455555 3.7369221078 -2.4166011773 0.45769741652 3.8635036021
          -1.2063787964 0.22195535569 3.9355441361 -6.693731566e-06 -4.2560280719e-05 3.9382198022
          1.2063728035 -0.22199345993 3.9355566894 2.4166081476 -0.45765309738 3.8635008548
          3.6232849674 -0.65035259573 3.7369305747 4.7970016722 -0.83628461324 3.557568299
          6.0072595934 -0.98018343327 3.3179113241 7.2415373354 -1.1218937371 3.0180673552
          8.4697481649 -1.2560117948 2.6848512223 9.7623123042 -1.2936025146 2.3307420431
          11.942446964 -0.86080437347 2.098540215 14.51668787 -0.3569630421 1.7928104253
          16.231186884 -0.65175685754 1.0530358128 15.772993516 -0.77787888338 1.0661833135
          -16.30894926 0.56242943955 0.70179040528 -16.769124394 0.53552142073 1.5020472249
          -15.018148438 0.32788502731 1.8251885899 -12.34112739 0.90392503802 2.1650237803
          -10.114088179 1.3958835382 2.3321023898 -8.8020818386 1.3382463032 2.7011274447
          -7.5455437687 1.1729546215 3.0432193639 -6.2770330421 1.0235891557 3.3195278523
          -4.9992134339 0.84710309439 3.5580755397 -3.7807164097 0.65374491779 3.7308505984
          -2.5340149182 0.45747529001 3.8572594831 -1.2725947712 0.20262718209 3.9362757261
          3.675456204e-06 2.336942921e-05 3.9597590104 1.2725951758 -0.20262460948 3.936278616
          2.5340066643 -0.45752776987 3.8572587008 3.7807139729 -0.65376041143 3.7308631482
          4.9992108011 -0.84711983446 3.5580947502 6.2770290279 -1.0236146791 3.3195415113
          7.5455432034 -1.1729582156 3.0432297313 8.8020817856 -1.3382466399 2.7011380375
          10.114085236 -1.3959014539 2.3321050009 12.34113099 -0.90390687394 2.1650300602
          15.018154709 -0.32785176851 1.8251931425 16.76913074 -0.53547563543 1.5020504421
          16.308954812 -0.56238569813 0.70179128953 -16.757814139 1.4106709686 0.98254759523
          -17.28226681 1.2003335167 1.3286116896 -15.464892261 0.74916536176 1.8272973568
          -12.793997127 0.90883858517 2.0708944126 -10.479226048 1.503626625 2.3404464902
          -9.138463722 1.4528734946 2.6967037715 -7.8163042046 1.2586277018 3.0423292372
          -6.5163880225 1.0626610334 3.2985302191 -5.232900791 0.83216356076 3.5395781782
          -3.9594737363 0.63049660651 3.7243103176 -2.6719475679 0.42511977358 3.8642568505
          -1.3501308497 0.18815414518 3.9507220456 -1.0233382115e-06 -6.5066010436e-06 3.9731112563
          1.3501282244 -0.18817083752 3.9507170956 2.6719634126 -0.42501902904 3.8642536794
          3.9594782567 -0.63046786452 3.7243223423 5.2328951437 -0.83219946709 3.5395884664
          6.5163880806 -1.0626606642 3.2985440089 7.8163044322 -1.2586262547 3.0423412673
          9.138455969 -1.4529227898 2.6967162166 10.479229198 -1.5036074536 2.3404556126
          12.793997617 -0.90883611046 2.0709033163 15.464896925 -0.74914062543 1.8273031408
          17.282270318 -1.2003082093 1.3286135146 16.75781662 -1.4106514256 0.98254759523
          -17.202243301 1.828416546 0.51546093388 -17.756904409 1.5393452699 1.1443352417
          -15.9051484 0.9810354666 1.8178748481 -13.171754203 1.0571664396 2.1186318183
          -10.84203332 1.6293489834 2.3463556583 -9.444940142 1.5832776507 2.682026327
          -8.1250642904 1.3284863477 3.011818792 -6.7773833617 1.0822061486 3.2709210045
          -5.4479266292 0.82982850908 3.5323075026 -4.1315116156 0.63094238012 3.7221960268
          -2.8057484301 0.42279385551 3.8835458373 -1.3961902433 0.21499230211 3.9959685656
          3.7769650022e-06 2.4014830196e-05 4.0354249075 1.396184391 -0.21502951269 3.995960697
          2.8057493148 -0.42278823034 3.8835449502 4.1315090874 -0.63095845472 3.7221927546
          5.447925454 -0.82983598082 3.5323132631 6.7773833402 -1.0822062846 3.2709215604
          8.1250582535 -1.3285247316 3.0118182543 9.4449348334 -1.5833114039 2.6820262385
          10.842031536 -1.6293598409 2.346357569 13.171757373 -1.0571504444 2.1186261992
          15.905153889 -0.98100635414 1.8178712413 17.756909397 -1.539309285 1.1443347537
          17.202248007 -1.8283794737 0.5154618097 -17.77810431 1.742321672 0.7061926962
          -18.355785066 1.5746464524 1.4593574264 -16.422378985 1.0443034908 1.8049923102
          -13.640903396 1.1275965562 2.1736309017 -11.23106093 1.7094809305 2.3655376915
          -9.7848011021 1.6520037534 2.6863347942 -8.3809128148 1.3838451429 3.0196719518
          -7.0094976807 1.11185926 3.2765111636 -5.6337162814 0.84702578454 3.5143158546
          -4.2572216892 0.63276705099 3.7330472018 -2.8384719832 0.42796830576 3.9001240938
          -1.4444027672 0.22923265621 4.0299369874 -1.8953653294e-08 -1.204961314e-07 4.0448989663
          1.4444054844 -0.22921537985 4.0299364658 2.8384708661 -0.42797540853 3.900125295
          4.2572159199 -0.6328037337 3.7330485635 5.6337110458 -0.84705907361 3.5143084797
          7.0094969104 -1.1118641578 3.2765126912 8.3809136514 -1.3838398238 3.0196685323
          9.7847941097 -1.6520482122 2.6863337842 11.23105608 -1.7095104451 2.3655367756
          13.64090415 -1.1275927533 2.173627617 16.4223844 -1.04427477 1.8049901331
          18.355790254 -1.5746090327 1.4593560894 17.778107556 -1.742296099 0.70619182038
          -18.414061353 1.1685263441 0.81429169593 -19.013499699 1.2045620889 1.1632505804
          -16.990842075 0.89784498186 1.7194803612 -14.133498066 1.045496631 2.193556628
          -11.643411934 1.7253529407 2.3678807856 -10.123797733 1.669356802 2.6893337989
          -8.6836269699 1.3987330974 3.0160880852 -7.2291455625 1.1477506993 3.2756675751
          -5.7728661896 0.907523636 3.5300934919 -4.3343507879 0.67697643653 3.7666162169
          -2.885366738 0.47457527656 3.9331488707 -1.4301894405 0.25344664011 4.0469769334
          4.566359703e-06 2.9034004457e-05 4.0920549247 1.430185852 -0.25346945645 4.0469733994
          2.8853656338 -0.47458229712 3.9331388964 4.334350752 -0.67697666498 3.7666100369
          5.7728654598 -0.90752827598 3.5300921129 7.2291471144 -1.147740832 3.2756627637
          8.6836240384 -1.3987517361 3.0160866124 10.123792304 -1.6693913193 2.6893369274
          11.643407741 -1.7253784593 2.3678948411 14.133500408 -1.0454848121 2.1935648709
          16.990846176 -0.89782322798 1.7194851995 19.013503783 -1.2045326271 1.1632496762
          18.41406614 -1.1684886326 0.81428993586 -18.964686629 1.6252395839 0.83412519318
          -19.54286385 1.5716902359 1.3520098331 -17.498839486 1.1107600206 1.9282909249
          -14.543927492 1.158576554 2.1911390507 -12.005982383 1.7665448131 2.3710731942
          -10.436794904 1.6932180858 2.6998429167 -8.9486246538 1.4456116192 3.0327926853
          -7.4177037899 1.2369474034 3.30737596 -5.9245721969 1.0054631613 3.5708803428
          -4.3954186228 0.75174592472 3.7796457891 -2.9119108292 0.50877776257 3.9582242599
          -1.4414228485 0.28187788094 4.0538814704 -1.7769554889e-06 -1.1298272246e-05 4.1066179427
          1.4414203672 -0.28189365773 4.0538803286 2.9119231828 -0.50869921528 3.958230117
          4.3954187449 -0.75174514854 3.7796343261 5.9245709943 -1.0054708081 3.5708725113
          7.4177018331 -1.2369598453 3.3073747959 8.9486252797 -1.4456076399 3.0327937456
          10.436792698 -1.6932321084 2.6998535033 12.005979751 -1.7665608293 2.3710880899
          14.543925292 -1.158587654 2.1911530325 17.498840817 -1.1107529639 1.9283001355
          19.542866998 -1.5716675247 1.3520155683 18.964690998 -1.6252051591 0.83412568496
          -19.531622924 1.6258141118 0.70013627178 -20.090526918 1.5647905441 1.4461688048
          -18.096189976 0.51621587254 1.8009541629 -15.001539976 0.92754767348 2.1788714617
          -12.316643437 1.7825828083 2.3875722551 -10.723135385 1.7297674097 2.7109587249
          -9.1727146557 1.4662576944 3.0475824502 -7.6341558736 1.2450971601 3.3302466427
          -6.0611090331 1.061670249 3.5801172758 -4.4660559042 0.84540995766 3.7993784571
          -2.9681714807 0.5495040685 3.9582079479 -1.4789657639 0.29282133157 4.0571505857
          2.0072936733e-06 1.2762866089e-05 4.095542262 1.4789688355 -0.29280180167 4.0571555392
          2.9681617167 -0.54956614979 3.9582155785 4.4660536219 -0.84542446907 3.7993719009
          6.0611134678 -1.0616420519 3.5801106343 7.6341577989 -1.2450849186 3.3302507974
          9.172713733 -1.4662635613 3.0475924212 10.723131186 -1.7297941118 2.7109698519
          12.316641471 -1.7825947768 2.3875895113 15.001543759 -0.92752858243 2.1788894583
          18.096192548 -0.51620222951 1.8009673186 20.090528837 -1.5647766995 1.446178069
          19.53162552 -1.6257936646 0.70014193604 -20.099977726 1.0580078308 1.18933157
          -20.638199437 1.1954136115 1.4704235811 -18.453374428 0.92145865321 1.9166708872
          -15.328448967 1.1154026145 2.1452173217 -12.616337105 1.8141321335 2.3835010816
          -10.973043045 1.7674724701 2.7215711131 -9.3871132391 1.5366342171 3.0694659176
          -7.7925862536 1.3274112502 3.3526605694 -6.1846465127 1.1259738925 3.5988420504
          -4.5857016121 0.84308779418 3.7845848851 -3.0432524642 0.54942630055 3.9254878881
          -1.5031543649 0.29765337988 4.0294491649 -5.6814211556e-06 -3.6123768903e-05 4.0615135327
          1.5031528807 -0.29766281679 4.0294516598 3.04324941 -0.54944571955 3.9254838871
          4.5857038182 -0.84307376778 3.7845761718 6.1846503412 -1.1259495496 3.5988331042
          7.7925890187 -1.3273936693 3.3526617876 9.3871133253 -1.5366336692 3.0694709814
          10.973046076 -1.7674532026 2.721575542 12.616337502 -1.8141297152 2.3835101043
          15.328448508 -1.1154049311 2.145226484 18.453373477 -0.92146369675 1.9166790811
          20.638198367 -1.1954213367 1.4704304832 20.099975756 -1.058023352 1.1893397709
          -20.593189718 1.4835340996 0.87606054418 -21.124274353 1.5065382557 1.4444041942
          -18.917083908 1.1072831878 1.6893208808 -15.729142008 0.97407248113 2.2175908231
          -12.87587273 1.8833133317 2.3741699778 -11.19369712 1.8465090013 2.7313650757
          -9.5908773495 1.6130681664 3.0689586557 -8.003238445 1.3632033355 3.3747254034
          -6.3443653078 1.1307404781 3.6161813501 -4.7291939528 0.86912828211 3.7729937064
          -3.1211454917 0.58919203726 3.9003750547 -1.5612813137 0.30545232208 3.9687494885
          -5.6686276306e-06 -3.6042434056e-05 4.00457871 1.5612717738 -0.30551297881 3.9687405973
          3.1211471187 -0.5891816924 3.9003744658 4.7291970745 -0.86910843333 3.7729890584
          6.3443712003 -1.1307030123 3.6161691216 8.0032454272 -1.363158941 3.3747203149
          9.5908764952 -1.6130735982 3.0689545341 11.193702825 -1.8464727264 2.7313597755
          12.875876343 -1.8832913441 2.3741569755 15.729141878 -0.97407313867 2.2175870669
          18.917082374 -1.1072913235 1.6893193456 21.12427094 -1.5065628753 1.4444057423
          20.593184723 -1.4835734505 0.87606357255 -21.095299057 1.3212098752 0.52470467326
          -21.614647967 1.4347179454 1.3737187507 -19.287512248 1.0894985659 1.7665121702
          -15.979574897 1.2413485601 2.1510762669 -13.130630505 1.9236631884 2.3539600355
          -11.378432207 1.8955750304 2.6988718761 -9.7905386893 1.6837165865 3.0520638206
          -8.152177618 1.4236741142 3.3555503553 -6.5010478279 1.1507203406 3.60285506
          -4.8645070785 0.84772746765 3.7431751894 -3.2161971749 0.58052978175 3.8421221111
          -1.6158039797 0.30572390225 3.9015102803 8.7235693626e-07 5.5466831135e-06 3.9223491632
          1.6158045715 -0.30572013938 3.9015226508 3.2161910544 -0.58056869734 3.8421366949
          4.8645118168 -0.84769734062 3.7431763957 6.5010583044 -1.1506537288 3.6028359016
          8.1521818349 -1.4236473023 3.3555419234 9.7905359377 -1.6837340812 3.0520484799
          11.378431106 -1.8955820323 2.6988525774 13.130634986 -1.9236359191 2.3539389744
          15.979576148 -1.2413422493 2.1510570684 19.287512978 -1.0894946912 1.7664978885
          21.614646729 -1.4347268819 1.3737101795 21.095294491 -1.3212458435 0.52469861652
          -21.511660906 2.1953542785 0.81829330708 -22.21214881 0.98022754261 1.2589141937
          -19.779183832 0.8369862209 1.81038491 -16.36997171 1.1574929801 2.0486112703
          -13.410244323 1.9291858092 2.3179502621 -11.639348221 1.9138009873 2.6702400962
          -9.9962595584 1.7285529002 3.0290625985 -8.3180503664 1.4540789277 3.342516457
          -6.6567602762 1.1519343004 3.5557381698 -4.9646496228 0.84287728615 3.7343751337
          -3.3025803617 0.55915755136 3.8396040313 -1.6456697035 0.30798185939 3.8803929304
          4.7899395695e-07 3.0455770963e-06 3.9025558262 1.6456792755 -0.30792099848 3.8803830441
          3.3025562226 -0.55931103293 3.8396216796 4.9646374488 -0.84295469132 3.734384699
          6.656768806 -1.1518800659 3.5557163943 8.3180503742 -1.4540788782 3.3425059095
          9.9962580989 -1.7285621797 3.0290508122 11.639343283 -1.9138323819 2.6702232824
          13.410241813 -1.9292010842 2.317938699 16.369975937 -1.1574716506 2.0485975016
          19.779186952 -0.83696967242 1.8103726475 22.212152143 -0.98020349398 1.2589004963
          21.511663642 -2.1953327274 0.81828071025 -21.986397399 2.3841607267 1.0406692851
          -22.716132919 1.1300432117 1.1311543484 -20.227314763 0.9556093617 1.8787331721
          -16.733029625 1.2193283814 2.153466422 -13.691436924 2.0042210393 2.3572303889
          -11.866319211 1.9448036584 2.6748810382 -10.189384096 1.7589862214 3.0102692077
          -8.4909777163 1.4859134822 3.3203127589 -6.7867904976 1.1581834238 3.5441596259
          -5.1028120743 0.82989113126 3.7267428584 -3.4089876774 0.55896044534 3.8232441401
          -1.6993321509 0.28822725279 3.8637345507 2.84998469e-06 1.8120879523e-05 3.8788353878
          1.6993361923 -0.28820155609 3.8637404709 3.408968761 -0.55908072006 3.8232514104
          5.1028106301 -0.82990031363 3.7267524576 6.7867988012 -1.1581306275 3.544151192
          8.4909721255 -1.4859490297 3.3203055352 10.189379077 -1.7590181331 3.0102596673
          11.866324215 -1.9447718414 2.6748740827 13.69144301 -2.0041839975 2.3572300859
          16.733030381 -1.2193245667 2.1534584615 20.227317278 -0.95559602056 1.8787261042
          22.716137082 -1.1300131789 1.1311467533 21.986404445 -2.3841052153 1.0406614767
          -22.636534128 1.9586519693 1.1994835751 -23.372457844 0.8763230105 1.4713776096
          -20.787368253 0.79467731948 1.9089047022 -17.175310354 1.1565706099 2.2466392464
          -14.01297074 1.9973172232 2.3839748833 -12.163071376 1.9321455692 2.6979667007
          -10.407525714 1.7607077857 3.0338122891 -8.6850338524 1.502391556 3.3110274359
          -6.9645957241 1.1693288994 3.5195020956 -5.2458048739 0.83463721668 3.6953791747
          -3.5342721985 0.51474497224 3.8166767225 -1.7717220235 0.26242180187 3.8721753063
          3.717440458e-06 2.3636359268e-05 3.8719708518 1.7717268194 -0.26239130797 3.8721827062
          3.5342632988 -0.51480155844 3.8166853629 5.2457983139 -0.83467892659 3.6953902006
          6.964601633 -1.1692913287 3.5195060421 8.6850285931 -1.5024249962 3.3110350025
          10.407519548 -1.7607469916 3.0338212489 12.163076125 -1.932115371 2.6979711782
          14.012970696 -1.9973174958 2.3839780444 17.175313914 -1.1565526514 2.2466420594
          20.787371689 -0.79465909665 1.9089075214 23.372463398 -0.87628294067 1.4713818316
          22.636543063 -1.9585815761 1.1994883552 -23.144537701 2.4396624946 1.2468185136
          -23.923998291 1.2331200959 1.2262342626 -21.297541584 1.0148555763 1.9253942475
          -17.586377295 1.2677497134 2.2080863043 -14.402547788 2.0530768976 2.4263600747
          -12.51778551 1.9796402053 2.7259807805 -10.71419632 1.7567775475 3.0531788778
          -8.9433849068 1.4950657701 3.32553983 -7.1540482836 1.1651031257 3.5406107218
          -5.3852023371 0.82706980261 3.7148961996 -3.6324169324 0.50894946451 3.8220185489
          -1.8167266574 0.23977244064 3.8700732538 1.4335535129e-06 9.1148830294e-06 3.8921273153
          1.8167404903 -0.23968448739 3.8700826586 3.6323960866 -0.50908200657 3.8220198153
          5.385202546 -0.82706847465 3.7148993348 7.1540572559 -1.165046078 3.5406339448
          8.9433824016 -1.495081699 3.3255511538 10.714188588 -1.7568267117 3.0531980803
          12.517793545 -1.9795891204 2.7260044771 14.402548112 -2.0530749224 2.426378672
          17.586378433 -1.2677439693 2.2081056921 21.297544302 -1.014841161 1.9254101168
          23.924002344 -1.2330908616 1.226248448 23.144541989 -2.4396287091 1.2468302346
          -23.674630511 2.3305546598 1.2038272234 -24.482818814 1.2105270399 1.4322462605
          -21.824488962 1.0147305899 1.86141955 -18.041138643 1.3128731663 2.271182311
          -14.807531012 2.0845424805 2.4538864138 -12.869927026 2.0236644285 2.7479957483
          -10.993711942 1.7846500926 3.0790581716 -9.159224171 1.5192777125 3.3485840485
          -7.3322494238 1.1901133736 3.5519614832 -5.5316875352 0.82855288799 3.7289250272
          -3.7161959284 0.49076518796 3.831559393 -1.8554554746 0.24906969605 3.8876272838
          3.0524597947e-06 1.9408254076e-05 3.9014037718 1.8554603964 -0.24903840192 3.8876300853
          3.7161921319 -0.49078932736 3.8315741896 5.5316949928 -0.82850547097 3.728938068
          7.332259896 -1.1900467892 3.5519959663 9.1592256647 -1.519268215 3.3486030248
          10.993708453 -1.7846722784 3.0790855916 12.869931533 -2.0236357691 2.7480256496
          14.807533364 -2.0845281669 2.4539084484 18.041138929 -1.3128717247 2.2712099416
          21.824488444 -1.0147333384 1.8614402576 24.482816704 -1.2105422627 1.4322595417
          23.674627069 -2.3305817762 1.2038371843 -24.250195105 1.584764387 1.0939374365
          -24.963445719 1.8571381749 1.5868456879 -22.372674539 0.80541891026 1.7887547942
          -18.523822808 1.2471436468 2.321885841 -15.196662675 2.1201718404 2.4943059696
          -13.186996712 2.0673688678 2.7929512554 -11.292973824 1.7759208543 3.0912261178
          -9.4252434258 1.4548907586 3.3584822624 -7.5389145828 1.1118154342 3.5634972423
          -5.6812822745 0.7630937668 3.7304241913 -3.8165293146 0.43663657287 3.8351111027
          -1.9172619254 0.20174945776 3.9029971154 -7.1906710584e-07 -4.5719619269e-06 3.9278506759
          1.9172663509 -0.20172131877 3.902988304 3.8165256777 -0.43665969718 3.8351219234
          5.681294615 -0.7630153026 3.7304361579 7.5389239289 -1.1117560092 3.5635292111
          9.4252474064 -1.454865449 3.3584913551 11.292974344 -1.7759175472 3.091233165
          13.186996543 -2.0673699431 2.7929560117 15.196666121 -2.1201508666 2.4943142058
          18.523822219 -1.2471466209 2.3218897865 22.372672054 -0.80543208955 1.788757917
          24.963441236 -1.8571705196 1.586849754 24.25018814 -1.584819259 1.0939400723
          -24.648477132 1.7070646582 0.86615456102 -25.417278134 2.0030707911 1.6236905327
          -22.82446372 0.91959441324 1.9505325964 -18.936735579 1.3321539398 2.3071803998
          -15.583915632 2.1638912248 2.4806719941 -13.537733734 2.087452086 2.7982156449
          -11.587759797 1.7704356217 3.0898540072 -9.6359138949 1.4205096682 3.3637587159
          -7.722833265 1.079754532 3.5748762025 -5.8400046235 0.71927079912 3.7442667296
          -3.9280326352 0.40917768349 3.865459311 -1.9493951777 0.20991326437 3.9447168473
          -1.7112765821e-06 -1.0880661078e-05 3.9565718008 1.9493939613 -0.20992099886 3.9447232261
          3.9280391667 -0.40913615519 3.8654680158 5.8400020095 -0.71928741979 3.7442692851
          7.7228374183 -1.0797281239 3.5748801813 9.6359171166 -1.420489184 3.3637577807
          11.587756468 -1.7704567871 3.0898520554 13.537736874 -2.0874321229 2.7982136669
          15.583916175 -2.1638879183 2.4806690916 18.936735239 -1.3321556553 2.307175724
          22.82446222 -0.91960236714 1.9505277056 25.417275274 -2.0030914271 1.6236842746
          24.648471639 -1.7071079351 0.86614762846 -24.966683229 2.7361109247 1.2917139771
          -25.935880234 1.6800617808 1.6269994415 -23.193647978 1.3889345618 1.7482013819
          -19.350610464 1.327580748 2.2748485125 -15.935477061 2.2212633589 2.4692677432
          -13.848355173 2.142680988 2.7988529959 -11.862662554 1.7811622449 3.0719443371
          -9.8965848632 1.4054447808 3.335922869 -7.9301287891 1.0589852367 3.5453834251
          -5.9610642864 0.70976670904 3.7236402188 -4.0305438734 0.41630223418 3.8847964739
          -2.0020334896 0.21059633547 3.9718716734 2.829052405e-06 1.798779967e-05 4.0035426231
          2.0020301923 -0.2106173006 3.9718708371 4.0305482547 -0.41627437667 3.8848046327
          5.9610682864 -0.70974127601 3.7236380883 7.9301272481 -1.0589950346 3.5453790112
          9.8965844573 -1.4054473619 3.3359162354 11.862664808 -1.7811479129 3.0719342156
          13.848357631 -2.1426653591 2.7988393062 15.935477426 -2.2212611394 2.4692551586
          19.350610034 -1.3275829168 2.2748309875 23.193647196 -1.3889387082 1.7481875843
          25.935878875 -1.6800715812 1.6269872923 24.966682383 -2.7361175939 1.2917044086
          -25.394176954 2.9805507267 0.89386441414 -26.411338658 1.8914489808 1.5566652422
          -23.713077648 0.94000476523 1.8195512024 -19.701373145 1.4059385427 2.1830352781
          -16.22919324 2.2682521029 2.417228901 -14.1254575 2.1365726397 2.737697055
          -12.116184502 1.7761820579 3.0115206173 -10.111561235 1.4037620064 3.287572842
          -8.1067604348 1.0920611898 3.5318712724 -6.0978619635 0.75372121495 3.7028556441
          -4.1130307301 0.44712044134 3.882204801 -2.0275662633 0.23667212922 3.9742275832
          3.811550644e-06 2.4234749387e-05 4.0080161697 2.0275708702 -0.23664283766 3.9742285877
          4.1130349928 -0.44709333804 3.8822121162 6.097867253 -0.7536875831 3.70285372
          8.1067621366 -1.0920503694 3.5318681639 10.111562493 -1.4037540059 3.2875686486
          12.116179261 -1.7762153824 3.0115101374 14.125458796 -2.136564398 2.7376762502
          16.229190065 -2.2682714256 2.4172111089 19.701370515 -1.4059518115 2.1830116624
          23.713078196 -0.94000185488 1.8195344399 26.411340447 -1.89143607 1.55665549
          25.394180477 -2.980522971 0.8938596257 -26.021325099 2.4654470832 1.1470780604
          -26.937168965 1.5866225433 1.4400183682 -24.129544543 1.3782738402 1.8829075683
          -20.102910953 1.3600098173 2.0923064072 -16.55375197 2.3021558214 2.3488477271
          -14.441808365 2.1529691101 2.6802553175 -12.375649163 1.798593295 2.9750422104
          -10.35441231 1.4293532335 3.2741902649 -8.2743926269 1.1407840738 3.5144462554
          -6.2045476624 0.8254342929 3.722377783 -4.1800631819 0.4913940921 3.9266735935
          -2.0841092165 0.24062329445 4.0310402846 -1.2288025075e-06 -7.8130065452e-06 4.0526175017
          2.0841122963 -0.24060371218 4.0310468306 4.180064172 -0.49138779683 3.9266806624
          6.2045502872 -0.82541760325 3.7223804493 8.2743893961 -1.1408046159 3.5144491368
          10.354407538 -1.4293835691 3.2741915463 12.375645607 -1.7986159058 2.9750461295
          14.441805482 -2.1529874354 2.6802553175 16.553750482 -2.3021648766 2.3488407568
          20.102911556 -1.3600067735 2.0923064072 24.129546794 -1.3782619018 1.8829075683
          26.937173505 -1.5865897949 1.4400183682 26.021331358 -2.4653977765 1.1470780604
          -26.596589374 2.7196200147 0.60396215505 -27.518813838 1.7767203557 1.2697263376
          -24.659454747 1.4663204678 1.5721070033 -20.535259963 1.4049019514 2.1205398845
          -16.903995041 2.3219098137 2.2896268012 -14.73319867 2.1787775179 2.6241112893
          -12.623021467 1.8686167948 2.9381946056 -10.53341159 1.5397903197 3.2598532298
          -8.4028290549 1.2746770649 3.5426363451 -6.3252917549 0.94234198618 3.7161195395
          -4.2485138528 0.57343061852 3.9294299699 -2.1068974155 0.2819833572 4.0464502549
          3.7653116165e-06 2.3940741501e-05 4.0755200971 2.1069110539 -0.28189664132 4.0464416687
          4.2485081026 -0.57346717975 3.9294289426 6.3252960171 -0.94231488624 3.7161128082
          8.4028327035 -1.2746538665 3.5426327577 10.533409067 -1.53980636 3.2598588834
          12.623017164 -1.8686441551 2.9381999636 14.733195239 -2.1787993289 2.624117221
          16.903990584 -2.321936936 2.2896193433 20.535261832 -1.4048925187 2.1205456928
          24.659458132 -1.4663025166 1.5721121978 27.518816795 -1.7766990228 1.2697324399
          26.596592897 -2.719592259 0.60396694349 -27.286574548 2.2246719157 0.67731881614
          -28.229918226 1.4513532608 1.0413193466 -25.268517629 1.2849380897 1.5819776883
          -21.024711481 1.2871543539 2.0366920727 -17.246736742 2.3143812825 2.2536416242
          -15.001111804 2.1867737768 2.6027344653 -12.827854958 1.9314710142 2.9422212944
          -10.690426784 1.6187965686 3.2519514764 -8.54276396 1.3534243432 3.5175819718
          -6.4427203846 1.0302669746 3.6942869432 -4.3132826069 0.65874623327 3.9149663563
          -2.1657366035 0.293837378 4.0231948095 -1.5784574986e-06 -1.0036194491e-05 4.0470579238
          2.1657420727 -0.2938026031 4.0231812549 4.3132820362 -0.65874986218 3.9149527143
          6.4427205031 -1.0302662215 3.6942746282 8.5427627722 -1.3534318959 3.5175714948
          10.690424402 -1.6188117133 3.2519475851 12.827849379 -1.9315064887 2.9422146157
          15.001105167 -2.1868159766 2.6027291372 17.24673546 -2.3143890821 2.2536365183
          21.024713899 -1.2871421512 2.0366904686 25.268521246 -1.2849189025 1.5819780266
          28.229920752 -1.4513350382 1.0413223876 27.286575394 -2.2246652465 0.67732486445
          -27.860309541 2.5114041114 0.68573465853 -28.791981208 1.6445658989 1.2879358941
          -25.751062677 1.3599517489 1.5741610717 -21.385064105 1.32248095 2.0980730387
          -17.579337736 2.3336917817 2.2688926595 -15.267889498 2.2562038897 2.6310693383
          -13.085292211 2.002471875 2.9615438571 -10.888288951 1.6967947155 3.266733369
          -8.7307206762 1.4141828354 3.5270074639 -6.5360703827 1.1044967325 3.6886126027
          -4.3478327954 0.72492054968 3.8778902226 -2.1827543825 0.33993966771 3.9915556758
          -1.8467919634e-06 -1.1742318206e-05 4.0161670532 2.1827432037 -0.3400107449 3.9915536981
          4.3478368882 -0.72489452685 3.8778567315 6.536069252 -1.1045039212 3.6885877453
          8.730720512 -1.4141838795 3.5269779736 10.888286649 -1.6968093525 3.2667140353
          13.085291523 -2.0024762538 2.9615325897 15.267884214 -2.2562374813 2.6310601173
          17.579337489 -2.3336932858 2.2688820176 21.385066537 -1.3224686778 2.098069754
          25.751066061 -1.3599338026 1.5741588945 28.79198379 -1.6445472726 1.2879345572
          27.860309681 -2.5114030075 0.68573378271 -28.555899846 2.0237075025 0.58651544126
          -29.434513456 1.3319328207 1.4985564912 -26.274478004 1.203870355 1.5618617696
          -21.807136812 1.2590459745 2.0558596778 -17.882324966 2.3405069644 2.3011024017
          -15.560385429 2.2877454252 2.6466214782 -13.337742574 2.0582760584 2.9824208242
          -11.096542751 1.7526004153 3.2722230518 -8.8653455903 1.464873135 3.5152320829
          -6.6399263991 1.1186044998 3.6947090444 -4.3847425306 0.74288695407 3.8657259102
          -2.1880734141 0.34351343085 3.9485936127 5.1674546145e-07 3.2856037231e-06 3.9582793775
          2.1880824016 -0.34345628649 3.9485796234 4.3847316191 -0.74295633166 3.8657049401
          6.6399250322 -1.1186131904 3.6946963164 8.865351412 -1.4648361191 3.515191643
          11.096543253 -1.7525972202 3.2721975116 13.337741609 -2.0582821985 2.9823970742
          15.560385078 -2.2877476585 2.6465992648 17.882328854 -2.3404833 2.3010880306
          21.807137881 -1.2590405821 2.0558460983 26.27448307 -1.2038434855 1.5618510948
          29.434516245 -1.3319126989 1.498548408 28.555900774 -2.023700194 0.5865085087
          -29.08272001 2.3018860987 1.1389146813 -29.974639265 1.5545974396 1.1291017088
          -26.726768572 1.3453019081 1.8531086235 -22.152562573 1.3136422074 2.1189810395
          -18.166224299 2.3822155902 2.3409715798 -15.830104951 2.3263382074 2.6879611137
          -13.571897773 2.1072037636 2.9938514944 -11.296874219 1.7935459233 3.2941460636
          -9.0342701219 1.4831513977 3.5359517564 -6.7756845313 1.1089135214 3.6933160921
          -4.4758400492 0.74577956115 3.8387800707 -2.2500113008 0.35588462583 3.8996877276
          -1.4261396319e-06 -9.0677032468e-06 3.9168766333 2.2500121298 -0.35587935483 3.8996825308
          4.4758344335 -0.74581526731 3.8387596456 6.7756808916 -1.1089366632 3.6932912154
          9.0342703588 -1.4831498916 3.5359177585 11.296870597 -1.7935689511 3.2941170433
          13.571896832 -2.1072097502 2.9938272108 15.830106592 -2.3263277727 2.6879397388
          18.166227368 -2.3821969073 2.3409682632 22.152565595 -1.313626961 2.1189700838
          26.72677444 -1.3452707825 1.8530991802 29.974646331 -1.5545464686 1.1290922334
          29.082727115 -2.3018301228 1.1389068645 -29.572552212 1.835895572 0.94464800586
          -30.326003804 2.3696692759 1.2749675073 -27.205848511 1.2183854847 1.8033983792
          -22.546100159 1.2844907614 2.17732139 -18.489568293 2.3980352842 2.3546075592
          -16.137003984 2.3687183885 2.7077054972 -13.828655413 2.1319393859 3.0366368714
          -11.511529098 1.7937527153 3.3165774285 -9.2212951169 1.4734375724 3.5403611885
          -6.9274557508 1.0822322436 3.6955133342 -4.5981910128 0.68042204161 3.8425475809
          -2.3049505851 0.34491489639 3.8974617385 -1.8177611219e-06 -1.1557727096e-05 3.9139775483
          2.3049383291 -0.34499282295 3.8974509483 4.5981848426 -0.68046127302 3.8425441644
          6.9274545835 -1.0822396654 3.6955087772 9.2212931572 -1.4734500327 3.5403486403
          11.511525666 -1.793774535 3.3165707545 13.828655724 -2.1319374067 3.0366333016
          16.137008696 -2.3686884257 2.7077057083 18.48957635 -2.3979862481 2.3546114238
          22.546102632 -1.2844782849 2.1773281415 27.205854146 -1.218355595 1.8034022898
          30.326011301 -2.3696151945 1.2749678394 29.572561993 -1.8358185096 0.94464498592
          -30.010763529 2.0849098616 0.66837245785 -30.974373185 1.5117851908 1.3476195219
          -27.673479183 1.3634844192 1.7002634728 -22.977106214 1.3533444196 2.1000795572
          -18.851498659 2.4510712081 2.3720162378 -16.430992952 2.4040904223 2.7174191703
          -14.086012242 2.1210944819 3.0500224315 -11.715158118 1.7971489848 3.3287227842
          -9.3820035986 1.4595511703 3.5522755847 -7.0161749106 1.0552693763 3.7112542685
          -4.6436627954 0.66151439926 3.8518518021 -2.3573098368 0.32075878199 3.938063933
          -1.997051818e-06 -1.2697696017e-05 3.960634944 2.3573031618 -0.32080122322 3.9380580067
          4.6436573964 -0.66154872726 3.8518690546 7.0161718415 -1.05528889 3.7112546891
          9.3820061572 -1.459534902 3.5522819131 11.715156307 -1.7971605019 3.3287297531
          14.086011335 -2.1211002469 3.0500318317 16.430999268 -2.4040502607 2.7174276661
          18.851502474 -2.451047989 2.3720260932 22.977111469 -1.3533179033 2.1000875176
          27.673484534 -1.3634560372 1.7002705408 30.974378516 -1.5117467359 1.347627117
          30.010770575 -2.0848543502 0.66838026622 -30.439187379 3.120301146 0.98056861711
          -31.453102846 2.2558226292 1.3516814378 -28.249817877 1.2016032194 1.8651446265
          -23.423856191 1.3215895611 2.0920166372 -19.239110984 2.5031392105 2.3861089033
          -16.754996035 2.4473765823 2.7314132638 -14.355139005 2.1423260671 3.0726888723
          -11.933028904 1.793170025 3.3547287842 -9.5495564574 1.4339862913 3.5745544576
          -7.1438054357 1.0482042189 3.7504259934 -4.7239701145 0.67767527477 3.8652989523
          -2.357243322 0.34980129238 3.9818432734 -2.6863290843e-06 -1.7080290924e-05 4.0064019484
          2.3572405283 -0.34981905565 3.9818454155 4.7239630161 -0.67772040826 3.8653250312
          7.1438012385 -1.0482309059 3.7504324946 9.5495640317 -1.4339381325 3.5745825814
          11.933029484 -1.7931663411 3.3547434782 14.355143439 -2.1422978701 3.0727074289
          16.754999612 -2.4473538361 2.7314371698 19.23911435 -2.5031187251 2.3861385551
          23.423857343 -1.3215837475 2.0920386488 28.249820361 -1.201590045 1.8651617273
          31.453106954 -2.2557929913 1.351694231 30.439190961 -3.1202729258 0.98057945386
          -31.076551251 3.2263243733 1.2314986599 -32.069905264 2.3675200707 1.2981580475
          -28.811213816 1.2664231271 1.685008537 -23.895676295 1.3700873784 2.1070687928
          -19.593615902 2.54357943 2.3764603385 -17.028369457 2.4474409067 2.7268383674
          -14.594494935 2.1297011536 3.0679226988 -12.132616285 1.8026907734 3.3458017586
          -9.692565294 1.4403766553 3.589836879 -7.252850656 1.0680866298 3.774986766
          -4.7987794472 0.70424369854 3.9107674397 -2.415909045 0.34878374048 4.0119785587
          -7.4725276902e-07 -4.7511854366e-06 4.0623137332 2.4159174003 -0.34873061573 4.0119822279
          4.7987663425 -0.70432702131 3.9107977941 7.2528472487 -1.0681082939 3.7750142951
          9.6925764948 -1.4403054376 3.5898729906 12.132618701 -1.8026754122 3.3458296641
          14.594501343 -2.1296604055 3.0679515294 17.028370986 -2.4474311867 2.7268717137
          19.593620509 -2.5435513936 2.3765019627 23.895676581 -1.3700859367 2.1070986884
          28.811213298 -1.2664258756 1.6850298521 32.069903154 -2.3675352934 1.2981710169
          31.076547809 -3.2263514897 1.2315043326 -31.786660155 2.453374734 0.63088230519
          -32.825154284 1.8823206143 1.1296274672 -29.434172265 1.0271621868 1.7754671208
          -24.341460276 1.5489827284 2.0914929015 -19.983224409 2.5454356627 2.3834851166
          -17.368191881 2.4470165339 2.7403051482 -14.830215049 2.134554267 3.0836509541
          -12.305993967 1.8200375617 3.3717484446 -9.8209123894 1.4745600122 3.6207975518
          -7.3708031765 1.1032655205 3.8100771211 -4.8896832601 0.71421764342 3.933025248
          -2.4591147921 0.34784628275 4.0283644215 1.7027978334e-06 1.0826807436e-05 4.0587717581
          2.4591159662 -0.34783881753 4.0283786175 4.8896884397 -0.7141847104 3.9330435894
          7.3708088307 -1.1032295701 3.8100943346 9.8209226627 -1.4744946919 3.6208290496
          12.30599538 -1.8200285748 3.3717631629 14.830222444 -2.1345072443 3.0836701037
          17.368199141 -2.446970373 2.7403343205 19.983232093 -2.5453888979 2.3835217539
          24.341455173 -1.5490084737 2.0915172781 29.434167179 -1.0271891661 1.775483043
          32.825148577 -1.8823617848 1.129633791 31.786653897 -2.4534240407 0.63088405683
          -32.406213474 2.3100899698 0.60662484506 -33.397676826 1.8286410416 1.437347701
          -29.932665799 1.0360474747 1.8043440899 -24.753354196 1.5830214381 2.180273555
          -20.279942866 2.5950144455 2.3783175807 -17.596454045 2.476152899 2.7528147047
          -15.020281873 2.1434752404 3.1016779843 -12.457400965 1.8691026596 3.3695731881
          -9.9510044392 1.5187713516 3.5992218246 -7.4823884098 1.1644535236 3.7923599442
          -4.9944523832 0.74842038056 3.9139177189 -2.5176700169 0.3591037297 4.025050068
          -2.5421141094e-06 -1.6163332249e-05 4.0659708488 2.5176667102 -0.35912475439 4.0250572548
          4.9944621581 -0.74835822931 3.913934778 7.4823828703 -1.1644887451 3.7923708844
          9.9510043716 -1.5187717813 3.5992354229 12.457401185 -1.8691012561 3.3695806023
          15.020285716 -2.1434508006 3.1016827264 17.596461087 -2.4761081295 2.7528143355
          20.279945324 -2.5949994861 2.3783274457 24.7533513 -1.5830360491 2.1802753484
          29.93266082 -1.0360738805 1.8043453393 33.397671473 -1.8286796635 1.4373502743
          32.406208176 -2.3101317032 0.60662446102 -32.843875028 2.7779548891 0.51533487
          -33.83812463 2.2559696548 1.1490148487 -30.28500629 1.3358746382 1.811172034
          -25.128478407 1.502567306 2.1136381793 -20.554265748 2.6847213419 2.3548637211
          -17.804324557 2.5332402309 2.7413426288 -15.20342909 2.2039704793 3.0795372563
          -12.630216999 1.9356804008 3.3541382603 -10.088703997 1.5982862328 3.5762241089
          -7.5572392335 1.2529576439 3.7467260332 -5.0652986153 0.82832211547 3.9001642065
          -2.5551835608 0.37310049288 4.014976021 3.6903560683e-06 2.3464175389e-05 4.0563240701
          2.5551875396 -0.37307519434 4.0149844392 5.0652849762 -0.8284088361 3.9001633469
          7.5572321481 -1.2530026947 3.7467316949 10.088703627 -1.5982885848 3.5762351571
          12.63021939 -1.9356652027 3.3541380013 15.203432277 -2.2039502148 3.0795346121
          17.804324267 -2.5332420687 2.7413370472 20.554269515 -2.6846984143 2.354857112
          25.128475342 -1.5025827698 2.1136331012 30.285000487 -1.3359054201 1.8111686074
          33.838117797 -2.2560189542 1.1490109384 32.843867505 -2.7780141516 0.51533437822
          -33.357741422 2.3469176916 1.103703438 -34.375927748 1.9860186567 1.3880836669
          -30.760948298 1.1995805243 1.827691773 -25.452073555 1.7250687228 2.0887012893
          -20.866576955 2.7446321739 2.3866445018 -18.100082564 2.611141123 2.7479016928
          -15.48982143 2.2504105516 3.1105783875 -12.879313176 1.9607550353 3.3532210318
          -10.293526977 1.6557490625 3.5561321905 -7.7145583378 1.3109584462 3.7295365372
          -5.1572086247 0.89422675854 3.8658964615 -2.574083392 0.45421977352 3.9772201341
          -1.1629092549e-06 -7.3940231555e-06 4.0346795011 2.5740749061 -0.45427372874 3.9772181211
          5.1572194997 -0.89415761266 3.8658997689 7.7145537287 -1.3109877518 3.7295374541
          10.293522845 -1.6557753394 3.5561339733 12.879313277 -1.9607543892 3.3532147776
          15.489823008 -2.2504005193 3.1105665741 18.100087267 -2.6111112202 2.747884402
          20.866577891 -2.7446264751 2.3866285927 25.452070304 -1.7250851239 2.088682821
          30.760942649 -1.199610486 1.8276792593 34.375922617 -1.9860556729 1.3880772878
          33.357737469 -2.3469488298 1.1037016779 -33.814352509 2.5791954879 0.88028633098
          -34.823697698 2.2242726545 0.99542745881 -31.129134941 1.3934862494 1.79455048
          -25.803314455 1.643875921 2.1524539181 -21.158671303 2.867512668 2.3825340861
          -18.36949608 2.742583679 2.7345495439 -15.792112111 2.303572776 3.0975529467
          -13.176498493 1.96349297 3.3517510656 -10.535743138 1.6254333984 3.5662220749
          -7.8765296619 1.3281025311 3.7217402236 -5.2534022105 0.88760344448 3.8452339769
          -2.6034937408 0.47747206098 3.9374377984 1.3010954369e-06 8.2726993212e-06 3.9694555595
          2.6034981165 -0.47744423899 3.9374334898 5.2533957926 -0.88764425117 3.845219793
          7.8765299352 -1.3281007937 3.7217415953 10.535744765 -1.6254230501 3.5662266149
          13.176498591 -1.963492346 3.3517504012 15.792116331 -2.3035459479 3.0975502758
          18.369500106 -2.7425580808 2.7345464776 21.158675464 -2.8674873481 2.3825227349
          25.803314225 -1.6438770797 2.1524499032 31.129130234 -1.3935112155 1.7945465349
          34.823694069 -2.2242988389 0.99542392984 33.81434865 -2.5792258909 0.88028115849
          -34.183437707 3.343396151 0.62444731495 -35.153011611 2.8364640511 1.163638858
          -31.453634218 1.7559122724 1.7767518191 -26.113506254 1.8427289243 2.0964641272
          -21.459526405 2.9818265374 2.3596483332 -18.676237109 2.8266673469 2.7349859684
          -16.048055103 2.3913857205 3.080637012 -13.41518406 2.0113404656 3.3517141463
          -10.725077973 1.6587605229 3.5621020467 -8.0104922882 1.3107515899 3.7217246283
          -5.3372232017 0.92789562859 3.8320488372 -2.66357581 0.48266885067 3.9060947796
          -5.2750077765e-07 -3.3539510492e-06 3.9195257882 2.6635819404 -0.48262987236 3.9061038601
          5.3372251883 -0.92788299696 3.8320458572 8.0104854249 -1.3107952283 3.7217319947
          10.725070829 -1.6588059418 3.562108551 13.415182595 -2.0113497793 3.3517202554
          16.048053956 -2.3913930112 3.0806416646 18.676240522 -2.8266456458 2.7349889719
          21.459524771 -2.9818364808 2.3596338299 26.113505687 -1.8427317859 2.0964589798
          31.453633575 -1.7559156834 1.7767475703 35.153010285 -2.8364736149 1.1636354849
          34.183437903 -3.3433946076 0.62444428658 -34.719691541 3.1781918293 1.0754185643
          -35.692893059 2.7872468882 1.2868787097 -31.937967835 1.7783538946 1.7602810324
          -26.499812966 1.8990427646 2.1773353479 -21.821017948 3.0643576306 2.3816509022
          -18.988194473 2.8813604103 2.7510151213 -16.313011291 2.4476491292 3.0831909343
          -13.609640937 2.0324444097 3.3509630987 -10.857275166 1.6551513804 3.5566546869
          -8.1136818043 1.2939548742 3.7123590586 -5.3899166863 0.91965415942 3.8193126685
          -2.6894354102 0.46258512135 3.8795708945 -6.372108998e-07 -4.0515135894e-06 3.8853279096
          2.6894336271 -0.46259645849 3.8795780325 5.38993003 -0.91956931719 3.8193012638
          8.1136773087 -1.2939834582 3.712363023 10.857266684 -1.6552053157 3.5566636966
          13.609642635 -2.0324336147 3.3509642173 16.313008964 -2.4476639273 3.0831862973
          18.988194714 -2.8813588746 2.7510017668 21.821018933 -3.0643516335 2.3816347632
          26.499812923 -1.899042982 2.1773131234 31.937967899 -1.7783535509 1.7602669835
          35.692893291 -2.7872452166 1.2868738787 34.719691124 -3.1781951159 1.0754198326
          -35.190482914 3.6640226334 0.68016102541 -36.37493919 2.0334579851 1.3404519681
          -32.525304939 1.4430617221 1.6600170426 -26.991998911 1.8271082518 2.2016786695
          -22.196813593 3.1492837366 2.3733008213 -19.362847001 2.9343079523 2.7345234477
          -16.622333512 2.4550852595 3.0803059139 -13.854640536 2.0238768027 3.3591861662
          -11.039711835 1.6218124517 3.5861010745 -8.2205109201 1.2774188689 3.7446198567
          -5.4613983182 0.84833706688 3.8517705818 -2.7171941671 0.42194316529 3.9049196401
          -2.3212937218e-08 -1.4756828404e-07 3.936103665 2.7171921126 -0.42195622857 3.904912986
          5.4613998895 -0.84832707653 3.8517578957 8.2205086094 -1.2774335611 3.7446144929
          11.03970434 -1.6218601079 3.5861075083 13.854635702 -2.0239075353 3.3591836722
          16.622337925 -2.4550572031 3.0803034573 19.362847179 -2.9343068212 2.7345196869
          22.196812657 -3.1492894354 2.3732912615 26.991999384 -1.8271058656 2.2016735915
          32.525305656 -1.4430579194 1.660013616 36.374940317 -2.0334498563 1.3404480579
          35.190484178 -3.6640126775 0.68016053363 -35.78728719 3.0238968686 0.94001332441
          -36.850916123 2.7778909171 1.3595312429 -32.939873607 1.883736374 1.86482442
          -27.386589682 2.0464309919 2.0981274265 -22.533183687 3.2156704028 2.3496128275
          -19.638122185 2.9934631491 2.7037888948 -16.871861879 2.5433258043 3.0680617341
          -14.066814582 2.0873587125 3.3633074005 -11.196473754 1.6710630349 3.581587193
          -8.3259332353 1.2829230593 3.737721104 -5.5386351772 0.858489831 3.8670408757
          -2.7535793751 0.41026948634 3.9157555683 5.2916694057e-07 3.3645886271e-06 3.93920671
          2.7535800826 -0.41026498829 3.9157488385 5.5386414694 -0.85844982403 3.8670370264
          8.325930854 -1.2829381999 3.7377163482 11.196464283 -1.671123255 3.5815855849
          14.066812682 -2.0873707957 3.3633103821 16.871861021 -2.5433312604 3.0680601279
          19.638118323 -2.9934877005 2.7037852982 22.533181794 -3.215681926 2.3496087936
          27.386590278 -2.0464279825 2.0981240725 32.939874419 -1.8837320658 1.8648214207
          36.850917161 -2.7778834287 1.3595304431 35.787288118 -3.0238895601 0.94000991201
          -36.326529294 3.0206283251 1.1337976177 -37.45664431 2.8079013484 1.3133991671
          -33.48606969 1.9101884327 1.7359073499 -27.8260742 2.0570097964 2.1435728514
          -22.890373058 3.2279202132 2.3643803396 -19.947749376 3.0165635577 2.7263489127
          -17.107928713 2.5581259143 3.0869495838 -14.249457946 2.1325402795 3.3813433563
          -11.395374644 1.6989711881 3.6205692141 -8.4863366114 1.291913645 3.7637129768
          -5.6550682067 0.8610400429 3.8534527614 -2.8203676517 0.41700826117 3.8908216591
          -3.3047557121e-06 -2.1012391585e-05 3.9074472082 2.8203560179 -0.41708223187 3.8908156872
          5.6550830064 -0.86094594262 3.8534536213 8.4863352894 -1.2919220509 3.763708626
          11.395371785 -1.6989893674 3.6205686605 14.249454665 -2.1325611378 3.381340948
          17.107932253 -2.5581034053 3.0869530339 19.947747629 -3.0165746663 2.7263523495
          22.89036876 -3.2279463716 2.3643830368 27.826075903 -2.0570012043 2.1435798923
          33.486073044 -1.9101706434 1.7359110622 37.456647588 -2.8078777034 1.3133989559
          36.326532736 -3.0206012088 1.1337954652 -36.827801925 3.649533872 1.1850155347
          -38.099306488 2.1453073376 1.1548265773 -34.05364264 1.5335846309 1.8529470471
          -28.254353291 1.8858457249 2.149026639 -23.201029462 3.2260512653 2.348952907
          -20.161438896 3.030011443 2.7097306105 -17.338757547 2.5378665356 3.0543108512
          -14.444393204 2.1640120845 3.3633889017 -11.561947498 1.7485288778 3.6048970283
          -8.675700623 1.3290591749 3.7434384279 -5.7814804435 0.88165511901 3.8550391575
          -2.8801691767 0.44994581295 3.8895993874 -3.9110779492e-06 -2.4867523469e-05 3.8953377028
          2.8801642686 -0.44997701934 3.8896011704 5.7814784931 -0.88166751985 3.8550338613
          8.6756999675 -1.3290633427 3.7434302712 11.561948325 -1.7485236208 3.6048921438
          14.444392565 -2.1640161502 3.3633876863 17.338759163 -2.5378562574 3.0543124753
          20.161437765 -3.0300186365 2.7097335955 23.201026105 -3.2260716989 2.3489625129
          28.254353999 -1.8858421497 2.1490285018 34.053644576 -1.533574362 1.8529491187
          38.099309182 -2.1452879037 1.1548286135 36.827805367 -3.6495067557 1.1850176872
          -36.289094525 3.0781518911 1.2983159574 -37.718636854 2.9047023686 1.5928719463
          -33.940075388 1.3133381254 2.0455265241 -28.060591628 2.00496132 2.2397214269
          -23.071804571 3.1788731014 2.4679547402 -20.067512644 2.9984641031 2.8175361666
          -17.243644499 2.5312330775 3.1778290712 -14.39616933 2.1560470227 3.4805901325
          -11.508641077 1.7686629703 3.7233958416 -8.6402022037 1.3270172385 3.8988830525
          -5.7453641396 0.88596512054 3.9966758752 -2.8711077286 0.46377849641 4.025070833
          -4.061676252e-06 -2.5279855771e-05 4.0351716975 2.8711078232 -0.46377790747 4.025073706
          5.7453538026 -0.88602945834 3.9966732242 8.6402071192 -1.3269866441 3.8988751664
          11.508645907 -1.7686329086 3.7233807094 14.396171975 -2.1560305584 3.480589652
          17.243644379 -2.531233824 3.1778370655 20.067514187 -2.998454502 2.8175464145
          23.071806625 -3.1788608562 2.467976304 28.060593356 -2.0049527623 2.2397348557
          33.940073958 -1.3133455536 2.0455366752 37.718635911 -2.904708966 1.5928775699
          36.289094611 -3.0781512436 1.298321453 -32.784000573 3.9068304064 4.250882119
          -34.175220487 3.6182179597 3.1857295488 -30.599735226 1.8391851533 2.7754758657
          -25.138493106 2.2317103782 2.9192517115 -20.419558809 3.58619027 3.0478090077
          -17.898746509 3.3238975356 3.4428193963 -15.290093473 2.8106963522 3.7533359573
          -12.718791684 2.4084246108 4.0555168014 -10.169849923 1.9711450209 4.3024230491
          -7.6490228261 1.4909602021 4.5196994067 -5.0874833235 1.0094304634 4.5659314514
          -2.5642034602 0.52077970423 4.6755798831 5.8390646659e-07 3.7056689996e-06 4.661181476
          2.5642157545 -0.52070168051 4.67556344 5.0874810453 -1.009444922 4.5659192708
          7.6490240996 -1.4909521197 4.519691347 10.169854348 -1.9711169356 4.3024373679
          12.718795335 -2.4084014411 4.0555230057 15.290098914 -2.8106618205 3.7533419338
          17.898746684 -3.3238964303 3.4428316325 20.419558399 -3.5861927649 3.0478306412
          25.138488749 -2.231733041 2.9192693087 30.599732786 -1.8392002072 2.7754889004
          34.175219367 -3.6182342281 3.1857411481 32.783999718 -3.9068450003 4.2508882036
          -31.474260217 6.5809862888 7.6221350603 -33.38136625 4.3689071999 5.6856229315
          -29.263024523 3.4540967691 3.6674812318 -24.393719891 3.5951583363 3.3787040759
          -19.564859281 4.7813728569 3.5035328607 -16.541436765 4.5244534294 3.6440451433
          -14.37024441 3.7755849299 4.1992891217 -12.309543354 3.1384492073 4.4788116611
          -9.6779839722 2.585881873 4.7212264379 -7.1208151647 1.9736302472 4.653994524
          -5.1480637401 1.2716253256 4.9128180146 -2.5911564878 0.62106949857 4.8458224577
          -3.6799509582e-06 -2.8947818988e-05 4.8173934195 2.5911549738 -0.62108140884 4.8458399561
          5.1480620388 -1.2716387079 4.9128101875 7.1208133149 -1.9736447983 4.653995886
          9.677990088 -2.585833764 4.7212206625 12.309548341 -3.1384099791 4.478816301
          14.370247022 -3.7755643893 4.1993072678 16.541437468 -4.5244478996 3.6440748702
          19.564860799 -4.7813614337 3.5035623344 24.3937187 -3.5951673303 3.3787328059
          29.263023161 -3.4541164408 3.6675007141 33.38136533 -4.3689428539 5.6856324424
          31.474257543 -6.5810380336 7.6221383806 -34.897748675 7.553956173 10.164397547
          -36.088736102 6.4933960408 6.0846448225 -31.197197102 4.3155598896 3.6487814239
          -25.980638987 4.5980151152 3.2357923717 -20.543743385 6.0598031836 3.0661749738
          -17.673888702 5.5910867899 3.6247096754 -15.140194111 4.7932926998 3.7512892167
          -12.809919932 3.9706563469 3.9723075322 -10.608103535 3.1927873211 4.2177579996
          -7.3720213203 2.506106262 4.5066420875 -5.2793365419 1.661521106 4.8554894525
          -3.1947660381 0.72578972759 4.7127413563 2.0733547939e-06 2.2061785521e-05 4.6614391182
          3.1947617069 -0.72583581429 4.71273389 5.2793335162 -1.6615533015 4.8554919417
          7.3720147419 -2.5061762599 4.5066402061 10.608109416 -3.1927247382 4.2177563224
          12.809926243 -3.9705891961 3.9723053088 15.140197043 -4.7932615037 3.7512935958
          17.673887503 -5.5910995498 3.6247136441 20.543743527 -6.05980176 3.0661892356
          25.980636447 -4.5980370331 3.2357994601 31.19719329 -4.3156025642 3.6487840808
          36.088733484 -6.493462675 6.0846402297 34.89775073 -7.5540245182 10.164396014
          -38.747806759 6.5440831915 9.3066126715 -39.118618827 5.6225654791 4.3933496933
          -34.504846374 4.1556670946 1.7996714738 -28.636227244 3.7446232971 2.5456282769
          -23.844160164 5.1472714626 2.7065031509 -19.993290883 4.9639447682 3.338672075
          -18.272812157 4.1276374307 3.4212241094 -15.20517431 3.43683918 4.3410176228
          -12.321966871 2.7461489323 4.6012607323 -9.5922720271 2.0192731057 4.2240684144
          -5.2963789532 1.5062779002 4.6906124762 -2.6095462289 0.72978498662 4.4982939929
          -1.9227110734e-06 -1.8475932612e-05 4.442239116 2.6095434885 -0.72981131967 4.4983429515
          5.2963680036 -1.5063831177 4.6905287816 9.5922664291 -2.0193268984 4.2240754014
          12.321973051 -2.7460895434 4.6010960071 15.205178898 -3.4367950934 4.3410121312
          18.272817523 -4.1275858613 3.4212125403 19.993291329 -4.9639404884 3.3386513564
          23.844167645 -5.1472048909 2.7068386949 28.636222847 -3.7446575861 2.5456101891
          34.504838058 -4.155731818 1.7996526551 39.118614154 -5.6226493232 4.3933300625
          38.747811872 -6.5441792494 9.3065948803
        </DataArray>
        <DataArray type="Float64" Name="Strain" NumberOfComponents="3" ComponentName0="epsil_xx" ComponentName1="epsil_yy" ComponentName2="epsil_xy" format="ascii" RangeMin="0.00034776345368" RangeMax="0.0081148131917">
          -0.00015609217111 2.04481262e-05 0.00031009116074 -0.00032835118803 3.6869569245e-05 0.00031775907022
          -0.00014993528674 4.7288795606e-05 0.00043291580508 0.00012463327925 4.6516050735e-05 0.00052116044937
          7.8296613595e-05 3.8749781759e-05 0.00057479603866 6.2430784112e-05 2.8212104331e-05 0.00065031518932
          0.00010331908815 1.8641527364e-05 0.00072922824641 -0.00018408647429 8.6231278997e-06 0.00079552658266
          -4.9907607873e-05 1.0094522551e-08 0.00084999405395 0.00011978614177 -2.3507806812e-10 0.00089185278828
          -5.5121634075e-05 -5.8024585137e-10 0.0009192683942 0.00014772667021 1.9733341627e-09 0.00093997153637
          0 -1.7874975722e-08 0.00094716155154 -0.00014772667021 -9.0438383449e-09 0.00093999458255
          5.5121634075e-05 5.485275123e-09 0.00091929608958 -0.00011978614177 1.3167376745e-08 0.00089183977624
          4.9904089106e-05 -6.091982252e-09 0.00084995848327 0.00018407230098 -8.6172078073e-06 0.00079548897139
          -0.00010331068039 -1.8623154283e-05 0.00072923962838 -6.2441899911e-05 -2.819791072e-05 0.00065032818037
          -7.8304254225e-05 -3.8749704964e-05 0.00057481225605 -0.00012463082839 -4.65288681e-05 0.00052117505002
          0.00014992490587 -4.7317252408e-05 0.00043292400441 0.00032835139833 -3.6912243079e-05 0.00031776283067
          0.00015609182511 -2.04848764e-05 0.00031009408664 -0.00025636272501 6.8330544052e-05 0.00033183511459
          -0.0001546796763 8.6269859334e-05 0.00045169874693 -0.00025057457293 8.3991518865e-05 0.00046704528515
          -3.4959011872e-05 6.9068526738e-05 0.00055733039967 -6.1018721935e-05 4.8727806012e-05 0.00060543567113
          -5.9049305526e-05 3.362029684e-05 0.00068437322866 -1.4368838267e-05 2.699403075e-05 0.00077299835752
          -0.00021128414098 1.8244388185e-05 0.0008407849348 -9.6117194462e-05 7.6261574475e-06 0.00090133746183
          5.5221188081e-05 4.9642870723e-06 0.00095316959696 -7.4160631988e-05 1.5383061531e-06 0.00098545989204
          0.0001008878342 2.35929698e-09 0.0010071395266 -2.3739998856e-10 3.3834401947e-09 0.0010105029024
          -0.00010088817423 1.1412186751e-09 0.0010071418339 7.4160419739e-05 -1.5401298781e-06 0.00098546489475
          -5.5221397037e-05 -4.9596987649e-06 0.00095320849869 9.6117262681e-05 -7.6115355458e-06 0.00090137598462
          0.00021127576137 -1.8220891195e-05 0.00084082555744 1.4356302193e-05 -2.6967701048e-05 0.00077300738547
          5.9038003968e-05 -3.3607420852e-05 0.0006843204776 6.1025914588e-05 -4.8727196044e-05 0.00060538447503
          3.4962922582e-05 -6.9062013653e-05 0.00055727860631 0.00025056498574 -8.4021286774e-05 0.00046705456671
          0.00015466944954 -8.6321032616e-05 0.00045170259163 0.00025636080803 -6.8380608492e-05 0.00033182957408
          -0.00035472932332 0.00016527673434 0.00030046849537 -0.00028338854524 0.00017397565229 0.00044240650953
          -0.00033060192316 0.0001457718405 0.00045566020011 -0.00018826284925 0.00010521101077 0.00055099881722
          -0.00018625797249 6.6626856421e-05 0.00052074772136 -0.00016745325449 5.6044183462e-05 0.00060454119798
          -0.00011869621361 4.9949239391e-05 0.00069930330642 -5.1782621326e-05 3.7760707334e-05 0.00076781692082
          -0.00013062034445 2.146586537e-05 0.00082915871119 -2.7250589276e-05 1.0926918035e-05 0.0008833570661
          -8.711252158e-05 6.2815194526e-06 0.00091621285496 2.9795371125e-05 1.7946421922e-06 0.0009412886602
          -2.2204460493e-16 -2.180048253e-09 0.00094747566508 -2.9795883255e-05 -1.7935292949e-06 0.00094129433756
          8.7111727091e-05 -6.2903737665e-06 0.00091621811444 2.7248939199e-05 -1.0919585403e-05 0.00088336341581
          0.00013061804515 -2.1447784601e-05 0.00082916581441 5.1779646136e-05 -3.7730652098e-05 0.0007678255121
          0.00011869672574 -4.992050918e-05 0.0006993149186 0.00016745267571 -5.6023900766e-05 0.00060455613882
          0.00018626022498 -6.6620665391e-05 0.00052076295002 0.00018826934642 -0.00010520171644 0.00055097313841
          0.00033060231606 -0.00014580847001 0.00045566990131 0.00028338730945 -0.0001740237002 0.00044240900958
          0.00035472721045 -0.00016531549266 0.00030046556372 -0.00042244585989 0.00024749357997 0.00022586485234
          -0.00037950486269 -4.9326729733e-05 0.00035657804359 -0.00032440242788 1.936430929e-05 0.00046431986392
          -0.00030662750631 5.7197859943e-05 0.00048937416033 -0.0002787806997 7.4464050244e-05 0.00054835669602
          -0.00024540801474 6.3544991578e-05 0.00063339274509 -0.0002025858893 5.6042154515e-05 0.00072951528229
          -0.0001481037595 4.551878064e-05 0.00079672686402 -0.00014898881596 2.965557863e-05 0.00085441629563
          -8.8170111274e-05 2.0058334546e-05 0.0009091279875 -8.6102785643e-05 1.2135258644e-05 0.00094198119642
          -1.2802283265e-05 5.6089472575e-06 0.00096651370325 -2.2204460493e-16 -1.0178755505e-08 0.00097328825548
          1.2801874536e-05 -5.6129165111e-06 0.00096651222749 8.6101742837e-05 -1.2134042286e-05 0.00094198320099
          8.816816028e-05 -2.0042780646e-05 0.00090913001069 0.00014898607271 -2.9642232797e-05 0.00085442412756
          0.00014810018403 -4.5496254201e-05 0.00079673308481 0.00020258483174 -5.6022703353e-05 0.00072951973358
          0.00024539605868 -6.3532081569e-05 0.00063339197718 0.00027877384234 -7.446140007e-05 0.00054835389521
          0.00030661819865 -5.7209335421e-05 0.00048937133154 0.00032439483551 -1.939759994e-05 0.00046431865913
          0.00037950200217 4.9280899216e-05 0.00035657780317 0.0004224423512 -0.00024753010873 0.00022586294989
          -0.00047529844875 0.00030547021102 0.0003170313372 -0.00045146722033 -8.3303324355e-06 0.00030412954887
          -0.00041856319106 4.8761516599e-05 0.0004472187868 -0.00037372121151 7.5400502743e-05 0.00049237993481
          -0.00033397887137 8.7101549843e-05 0.00055705427494 -0.00029183695186 8.2115492717e-05 0.00064430653392
          -0.00024589418102 7.8710324933e-05 0.00073500490588 -0.00021010122201 6.8047403519e-05 0.00079958440651
          -0.00017028528883 4.947744203e-05 0.00085714419633 -0.00012290734585 3.2830410701e-05 0.00090950259119
          -8.5886335473e-05 1.7641176653e-05 0.00094406223322 -3.7699977884e-05 8.508987752e-06 0.00096574903706
          -3.3306690739e-16 4.2388290655e-09 0.00097322436427 3.7699977883e-05 -8.5053351534e-06 0.00096575211906
          8.5886335472e-05 -1.7647590971e-05 0.00094406270545 0.00012290734585 -3.2833854393e-05 0.00090950036421
          0.00017028528883 -4.9474771906e-05 0.00085714059098 0.00021010081839 -6.8039916893e-05 0.00079957883831
          0.00024589324168 -7.8698790683e-05 0.00073499841831 0.00029183352552 -8.210932367e-05 0.00064429574671
          0.00033397797072 -8.7102878748e-05 0.0005570408257 0.00037372028942 -7.5411975989e-05 0.00049236722571
          0.0004185669393 -4.878881495e-05 0.00044721097212 0.00045146941334 8.2894574591e-06 0.00030412601096
          0.00047529780502 -0.00030550324682 0.0003170293119 -0.0005751375181 -3.9210222487e-05 0.00019519196224
          -0.00054146864674 1.8623696751e-05 0.00036282996574 -0.00050528273447 7.5280680766e-05 0.0004843848895
          -0.00045612697001 0.00010416884067 0.0005079467242 -0.0004118173482 0.00011365265333 0.00055719416519
          -0.00035972877673 0.00011140632603 0.00064476133547 -0.00031361053662 0.00011698910137 0.00073396635418
          -0.00026827175759 0.00010430305057 0.00080186859199 -0.0002134964881 8.151175301e-05 0.00086130459745
          -0.00015715405926 5.5104791896e-05 0.00091259512352 -0.00010463793062 2.9633670094e-05 0.00094608662702
          -4.6855290789e-05 1.7552215285e-05 0.00096425353416 -2.2204460493e-16 1.3508146601e-08 0.00096941504596
          4.6855290788e-05 -1.754282251e-05 0.00096425443036 0.00010463793062 -2.9635692366e-05 0.00094608629236
          0.00015715405926 -5.5105420403e-05 0.00091259482929 0.0002134964881 -8.1496052107e-05 0.0008613024172
          0.00026827215037 -0.00010429215818 0.00080186007336 0.00031361145074 -0.00011697641857 0.00073395431473
          0.00035972805617 -0.00011140221254 0.00064474399684 0.00041181822467 -0.00011365316824 0.0005571750566
          0.0004561320156 -0.00010415536193 0.00050792833042 0.00050528352074 -7.5299691739e-05 0.00048437155861
          0.00054146750678 -1.8659477681e-05 0.00036282097264 0.00057513690149 3.9176848065e-05 0.00019518682927
          -0.00068231167028 -2.7902683093e-05 0.00025049153296 -0.00063760553995 4.073638699e-05 0.00041195017646
          -0.00059814875798 0.00011382431149 0.0004332256572 -0.0005459298733 0.00013946851935 0.00048843740921
          -0.00049482436487 0.00014367993513 0.00055204332112 -0.00043039672342 0.00013913174022 0.00063891971706
          -0.00037062810257 0.0001436828927 0.00072491731865 -0.00031590652287 0.00012983384508 0.00079124111767
          -0.00025189379486 9.9479562437e-05 0.00085140914372 -0.00018558729582 6.011711987e-05 0.00090688534927
          -0.00012116608445 2.3011963047e-05 0.00093855686994 -5.4632462863e-05 8.5059455315e-06 0.00095300498968
          -2.2204460493e-16 -7.3008254997e-10 0.00095716794135 5.4632462862e-05 -8.5098788271e-06 0.00095300382005
          0.00012116608445 -2.3004556105e-05 0.00093855544589 0.00018558729582 -6.0110193158e-05 0.00090688124194
          0.00025189418764 -9.9471706111e-05 0.0008514023537 0.00031590560874 -0.00012983063381 0.00079123209673
          0.00037062698922 -0.00014368102508 0.00072490507106 0.00043039929959 -0.00013913141121 0.00063890216375
          0.0004948259619 -0.00014367968951 0.00055202634053 0.00054593565612 -0.00013944670877 0.00048841775143
          0.00059814680409 -0.00011383409194 0.00043321253751 0.00063760920826 -4.0753256696e-05 0.00041193999862
          0.00068231433854 2.788455923e-05 0.0002504853764 -0.00077728278832 0.00034213576635 0.0002769383496
          -0.00072879024397 4.5630686047e-05 0.00029322862793 -0.00068148748325 0.00013759336334 0.00045090268255
          -0.00062559049088 0.00017035797631 0.00049783432888 -0.00057048579429 0.0001750427301 0.00055409339793
          -0.00050085803721 0.00017064723664 0.00064327590529 -0.0004339236953 0.00016330728636 0.00072515708618
          -0.00036537909436 0.00014779211347 0.00079284497831 -0.00029722878711 0.00011484627269 0.00085085011793
          -0.00022138038789 6.9843925067e-05 0.0009054550509 -0.00014854702809 2.2848349202e-05 0.00093944800186
          -6.4533607791e-05 6.7158896853e-06 0.00095357050193 -2.2204460493e-16 -1.1519621146e-08 0.00096050443883
          6.453360779e-05 -6.7199041729e-06 0.00095356893249 0.00014854702809 -2.2855468931e-05 0.00093944508359
          0.00022138038789 -6.9839728958e-05 0.00090545271253 0.0002972291799 -0.00011486527379 0.00085084355946
          0.00036538000849 -0.00014780876024 0.00079283554701 0.00043392258195 -0.00016331808994 0.00072514445404
          0.00050085624661 -0.00017065147689 0.00064325998584 0.00057048158344 -0.00017504827615 0.0005540754959
          0.00062558885687 -0.00017038923938 0.00049781503734 0.00068148309961 -0.00013758358289 0.00045088933087
          0.00072878885558 -4.5613816342e-05 0.00029321750049 0.00077728422335 -0.00034211764249 0.00027693160387
          -0.00088746092882 0.00030771518483 0.00029840192541 -0.00083665978877 3.7079032644e-05 0.00032399813522
          -0.00077838783456 0.00015222395531 0.0004784420217 -0.00071541999557 0.00020247774581 0.00051176416227
          -0.00065004353872 0.00020615322629 0.00056058181853 -0.00056721671868 0.00019538504857 0.00064574195216
          -0.00048730670711 0.00018114334488 0.00072412578496 -0.00041094210429 0.00015670808512 0.00079298075602
          -0.00033539021728 0.00012081688628 0.00084445874044 -0.00024700345082 7.4958056809e-05 0.00089011338648
          -0.00017242219424 2.6614533675e-05 0.00092579321107 -7.7016278695e-05 7.4033304955e-06 0.00094387790252
          -2.2204460493e-16 -6.3721244947e-09 0.00094747158922 7.7016278695e-05 -7.4105232056e-06 0.00094387916273
          0.00017242219423 -2.6623789906e-05 0.00092579472461 0.00024700345082 -7.4967525788e-05 0.00089011527138
          0.00033539021728 -0.00012083292101 0.00084445946269 0.00041094210429 -0.00015672291405 0.00079297834467
          0.00048730670711 -0.00018115850769 0.00072411781242 0.00056721671868 -0.00019539441316 0.00064572832022
          0.00065004353872 -0.00020615844971 0.00056056457448 0.00071541999557 -0.00020250051551 0.00051174660504
          0.00077838783456 -0.00015219784351 0.0004784292343 0.00083665978877 -3.7043251715e-05 0.00032398947828
          0.00088746092882 -0.00030768181041 0.00029839708703 -0.00099272162921 0.00025048494289 0.00029206251145
          -0.00094057837326 0.00030474429789 0.00033843829337 -0.00086946147564 0.00015580398318 0.00041296556061
          -0.00080121574159 0.00022500574007 0.00048983588204 -0.00072442097096 0.00023459946946 0.00055959631687
          -0.00063677208319 0.00021883141581 0.00063942920065 -0.00054667010464 0.00020014749219 0.00071938499251
          -0.00045713660128 0.00016509829202 0.00078561536962 -0.00037070928923 0.00012427004522 0.00083895289578
          -0.0002755417628 7.8004248397e-05 0.00088188518055 -0.00018453724309 3.3058839524e-05 0.00091413386158
          -8.809054512e-05 1.1860787433e-05 0.00093707292826 -2.2204460493e-16 -8.8102525275e-11 0.00094170769065
          8.8090545119e-05 -1.1858093715e-05 0.00093707331918 0.00018453724309 -3.306432298e-05 0.00091413523521
          0.0002755417628 -7.8013446877e-05 0.00088188865843 0.00037070928922 -0.00012428524249 0.00083895789841
          0.00045713660128 -0.00016512111978 0.0007856188463 0.00054667010464 -0.00020016708729 0.00071938417175
          0.00063677208319 -0.00021884086728 0.00063942417757 0.00072442097096 -0.00023459920036 0.00055958747033
          0.00080121574159 -0.00022499282696 0.00048982655538 0.00086946147563 -0.00015577975761 0.00041295816164
          0.00094057837326 -0.00030470489466 0.00033843438291 0.00099272162921 -0.00025045190709 0.00029206085367
          -0.0011147731695 0.00015729036607 0.00026919471101 -0.0010599826906 0.00025884797447 0.00033437766369
          -0.00099038049351 0.00030794512283 0.00042187983018 -0.00091285455087 0.00023699359925 0.00049808900113
          -0.00082635557083 0.00025430225833 0.00055854342602 -0.00072438312759 0.00023833234514 0.00063777970185
          -0.00061981675801 0.00021241797848 0.00071437575905 -0.00051488905542 0.0001727187988 0.00078244946333
          -0.00041090199905 0.00012328355801 0.00083581485182 -0.00030608957717 8.1630058062e-05 0.00087707361033
          -0.00019928551517 4.4893639482e-05 0.00090889120609 -9.9879851662e-05 2.3012279609e-05 0.00093524329578
          -4.4408920985e-16 -1.0311432486e-08 0.00093822849158 9.9879851661e-05 -2.3011633735e-05 0.00093524105468
          0.00019928551517 -4.488645831e-05 0.00090889048147 0.00030608957717 -8.1619429258e-05 0.00087707472467
          0.00041090199905 -0.00012329576837 0.00083581900573 0.00051488905542 -0.00017274266822 0.0007824565514
          0.00061981675801 -0.00021243987616 0.00071438442523 0.00072438312759 -0.00023834738594 0.00063779011366
          0.00082635557083 -0.00025430630452 0.00055855163398 0.00091285455087 -0.0002369849811 0.00049809555926
          0.00099038049351 -0.00030792215398 0.00042188476276 0.0010599826906 -0.00025881176879 0.00033438076733
          0.0011147731695 -0.00015725589898 0.00026919557252 -0.0012258151169 0.00040391215426 0.00021698662053
          -0.0011730054912 0.0001843171895 0.00030981641815 -0.0010987901486 0.0002771517873 0.00041153871531
          -0.0010123389388 0.00030137783692 0.00049577121029 -0.00091437663166 0.00027257210939 0.00055660204036
          -0.00079947159987 0.00025346477345 0.00064028160318 -0.00068307847276 0.00021892427651 0.00071315565333
          -0.00056808055304 0.00017986189452 0.00078368884485 -0.00045117507524 0.00013323065376 0.00084266160999
          -0.00033927328413 8.9387646642e-05 0.00088415418439 -0.00021594761299 5.7434034277e-05 0.00091865610783
          -0.00010909945895 2.550264946e-05 0.00094388885573 -1.1102230246e-16 3.2577343045e-09 0.00095380454607
          0.00010909945895 -2.5499294974e-05 0.00094389197928 0.00021594761299 -5.7429578089e-05 0.00091865886626
          0.00033927328413 -8.9393050082e-05 0.00088415169525 0.00045117507524 -0.00013323864367 0.00084266563662
          0.00056808055304 -0.00017987918948 0.00078369812268 0.00068307847276 -0.00021894367619 0.00071317128682
          0.00079947159987 -0.0002534826053 0.00064030228236 0.00091437663166 -0.00027258371531 0.0005566242101
          0.0010123389388 -0.00030140529045 0.0004957887909 0.0010987901486 -0.0002771343141 0.00041155109522
          0.0011730054912 -0.00018428949846 0.00030982340714 0.0012258151169 -0.00040388263377 0.00021698930414
          -0.0013279360007 0.00022807337204 0.00032170377082 -0.0012782950519 0.00036018171369 0.00040162041352
          -0.0011965471696 0.00023822662909 0.00047308489995 -0.0011030066416 0.00030677211007 0.00049608613884
          -0.00098827548445 0.00029716902018 0.00055943521992 -0.00086506058613 0.00026036459572 0.00064342058788
          -0.0007364744865 0.00022503962014 0.00071783711495 -0.00060944518174 0.00017782105841 0.0007871541998
          -0.00048872940551 0.00013145732389 0.00084454384867 -0.00036914073068 9.1768279936e-05 0.00089152575359
          -0.00024007251419 5.3663246791e-05 0.00092691402681 -0.00012114521816 2.4635594699e-05 0.00094977034792
          -4.4408920985e-16 -1.2960923446e-09 0.00095912852244 0.00012114521816 -2.4633936137e-05 0.00094977133927
          0.00024007251419 -5.3665629132e-05 0.00092691620758 0.00036914073068 -9.1764737404e-05 0.00089152638067
          0.0004887294055 -0.00013145837006 0.00084454692736 0.00060944518174 -0.00017783038701 0.00078716158368
          0.0007364744865 -0.0002250548556 0.00071785119277 0.00086506058613 -0.00026038348494 0.00064344003293
          0.00098827548445 -0.00029718653789 0.00055945609344 0.0011030066416 -0.0003068116933 0.00049610466176
          0.0011965471696 -0.00023822435227 0.00047309752743 0.0012782950519 -0.00036017000223 0.00040162847727
          0.0013279360007 -0.00022805165571 0.00032170814433 -0.0014325427651 0.00037274085234 0.00022074843128
          -0.0013759087257 0.00019777383146 0.00033700004547 -0.0012900519494 0.0003378669954 0.00044606139538
          -0.0011818602518 0.00036630206701 0.00048962095087 -0.0010593961517 0.00032135650995 0.00055932297013
          -0.00091767170705 0.00028406330986 0.00064241112563 -0.0007790190093 0.00024188041975 0.00072107017094
          -0.00065032995435 0.00019714339693 0.00078979667645 -0.00052392970054 0.00015246790701 0.00084774843452
          -0.00039245290106 0.0001070130068 0.00089758389182 -0.00026098032954 6.9089295571e-05 0.00093479499442
          -0.0001307393801 3.6087276366e-05 0.00095893747843 -7.7715611724e-16 8.3760154368e-09 0.00097104864002
          0.0001307393801 -3.6081898555e-05 0.00095893460064 0.00026098032954 -6.9093578008e-05 0.00093478923938
          0.00039245290106 -0.00010701446476 0.00089758024023 0.00052392970053 -0.00015246099595 0.00084774945521
          0.00065032995435 -0.0001971413164 0.00078980101192 0.0007790190093 -0.00024188062554 0.00072107781373
          0.00091767170705 -0.00028407147368 0.00064242246874 0.0010593961517 -0.00032136510294 0.00055933548625
          0.0011818602518 -0.00036631232007 0.00048963445729 0.0012900519494 -0.00033787875836 0.0004460717014
          0.0013759087257 -0.00019778455741 0.00033700873056 0.0014325427651 -0.00037273634108 0.00022075435591
          -0.0015066128076 0.00046921279226 0.00028745853462 -0.0014438324547 0.00029913212437 0.00041086876958
          -0.0013492649371 0.00041133706371 0.00041983772881 -0.0012424006127 0.00034939279367 0.0005151874622
          -0.0011105500012 0.00034100162053 0.00056102995055 -0.00097855178233 0.00029958046121 0.00064755215618
          -0.00084136017079 0.00025701683462 0.0007227412885 -0.00070399821256 0.00020769667319 0.00079134202417
          -0.00056213399656 0.00016433525514 0.00085567255786 -0.00042396522213 0.00012123567216 0.00090436075474
          -0.00028364189564 8.364307457e-05 0.00094209553709 -0.0001388197255 4.4993021511e-05 0.00096467042236
          -7.7715611724e-16 5.8560130078e-09 0.00097360798739 0.0001388197255 -4.499213991e-05 0.00096466909997
          0.00028364189564 -8.3643990966e-05 0.00094209321119 0.00042396522213 -0.00012123076856 0.00090435667139
          0.00056213399656 -0.00016431718214 0.0008556730873 0.00070399821256 -0.00020768221054 0.00079134309345
          0.00084136017079 -0.0002570115742 0.00072274449607 0.00097855178233 -0.00029958534914 0.00064755672006
          0.0011105500012 -0.00034100911265 0.00056103584493 0.0012424006127 -0.00034937965218 0.00051519497583
          0.0013492649371 -0.00041135707717 0.00041984473541 0.0014438324547 -0.00029915983472 0.00041087514714
          0.0015066128076 -0.00046923104468 0.00028746371639 -0.0015976066417 0.00015820331924 0.00015874654011
          -0.0015225294859 0.00036108328184 0.00033000156285 -0.0014164624894 0.00046116615131 0.00047082511866
          -0.0013104679719 0.00037880442734 0.00050374337266 -0.0011757330027 0.00036289477227 0.00055869695449
          -0.0010428986391 0.00031949237127 0.00064397396353 -0.00089763209552 0.00028289345978 0.0007275306814
          -0.0007498992328 0.00023236892975 0.00079594931518 -0.0005928908894 0.00019221665496 0.00085608558302
          -0.00044536424993 0.0001453696842 0.00090977447941 -0.00029431113973 0.00010562035758 0.00094161494337
          -0.00015185588161 6.3354889474e-05 0.00096468967726 -2.2204460493e-16 -1.4101639856e-09 0.00097146498131
          0.00015185588161 -6.335725365e-05 0.00096468964129 0.00029431113973 -0.00010560818774 0.00094161530281
          0.00044536424993 -0.00014535849117 0.00090977312098 0.0005928908894 -0.00019220328802 0.0008560852409
          0.0007498992328 -0.00023235653857 0.00079594612265 0.00089763209552 -0.00028288589476 0.0007275283808
          0.0010428986391 -0.00031949583492 0.00064397412529 0.0011757330027 -0.00036290143219 0.00055869847288
          0.0013104679719 -0.00037881732887 0.00050374695653 0.0014164624894 -0.00046118750001 0.00047082763639
          0.0015225294859 -0.00036111168301 0.00033000325959 0.0015976066417 -0.0001582251288 0.00015874755577
          -0.0016980214532 0.00053678586623 0.00020371376979 -0.0016146409853 0.00037834964119 0.00038774229925
          -0.0015052740669 0.00048536828613 0.00043279986278 -0.0013907987639 0.00040189556132 0.00049655926776
          -0.0012516277279 0.0003824938823 0.00055515963482 -0.0011087136203 0.00034207348206 0.00063969975317
          -0.00096396024802 0.00030088870626 0.00072289409467 -0.0008055016772 0.00024748504569 0.00079143159835
          -0.0006391337302 0.00020981496924 0.0008565405498 -0.00047943047767 0.00016215653538 0.0009096707239
          -0.00032373317478 0.0001200940264 0.00094499985147 -0.00016298060117 7.3224455765e-05 0.00096804872013
          -5.5511151231e-16 -7.8323432184e-09 0.00097718315917 0.00016298060117 -7.3242574882e-05 0.00096805350275
          0.00032373317478 -0.00012008456261 0.00094499959862 0.00047943047767 -0.00016214749716 0.00090967113882
          0.0006391337302 -0.00020980703844 0.00085654060274 0.0008055016772 -0.00024747201977 0.00079142625822
          0.00096396024802 -0.00030088148271 0.00072288858663 0.0011087136203 -0.00034207694129 0.00063969490632
          0.0012516277279 -0.0003824967519 0.0005551551431 0.0013907987639 -0.00040190603554 0.0004965568274
          0.0015052740669 -0.00048538660184 0.00043279633893 0.0016146409853 -0.00037837481465 0.00038773863285
          0.0016980214532 -0.00053680238605 0.00020371074335 -0.0018214345089 0.00049068069748 0.00022207065391
          -0.0017213988863 0.00035415614693 0.00043053883745 -0.0016022285306 0.00048509894792 0.00046872208408
          -0.0014766935088 0.00041867595158 0.00051161375172 -0.001326445304 0.00040149514456 0.00056036262296
          -0.0011722910804 0.00035345278944 0.00064167604789 -0.001013065177 0.00030978285379 0.00072523673072
          -0.00085762729644 0.00026350858128 0.00079629109127 -0.00068463927921 0.00022505970239 0.00085862953092
          -0.00051764247497 0.00017550617785 0.00090552769187 -0.000346890886 0.00013045695336 0.0009390487978
          -0.00017590073456 7.6690048691e-05 0.000960270074 -8.881784197e-16 -1.0388667704e-09 0.00096704397702
          0.00017590073456 -7.6711325598e-05 0.00096027646099 0.000346890886 -0.00013043120442 0.00093904884104
          0.00051764247497 -0.00017550352224 0.00090553252662 0.00068463927921 -0.00022506085235 0.00085863243767
          0.00085762729644 -0.00026350723437 0.00079628883371 0.001013065177 -0.00030977766685 0.00072523126446
          0.0011722910804 -0.00035344770636 0.00064166626308 0.001326445304 -0.00040150094755 0.00056035283167
          0.0014766935088 -0.00041868393702 0.00051160444611 0.0016022285306 -0.00048511224148 0.00046871377731
          0.0017213988863 -0.00035416998667 0.00043053272591 0.0018214345089 -0.00049068618936 0.00022206706131
          -0.0019345960419 0.00037676301422 0.0002161176967 -0.0018270590461 0.00056791208344 0.0002976636831
          -0.001702415747 0.00045876876024 0.00040814544068 -0.0015610940676 0.00042286324565 0.00048301422796
          -0.0014063487502 0.00041822066431 0.00054946894343 -0.0012382942572 0.00036971946988 0.0006343436449
          -0.0010768960616 0.00032303162593 0.00072015650965 -0.00091327002167 0.00027672842102 0.0007968787086
          -0.00073003636561 0.00023317096418 0.00086209136062 -0.00055035868428 0.00018729670965 0.00091124523915
          -0.00036292009709 0.00013212383499 0.00094295492949 -0.00017888553523 7.0694845389e-05 0.00096323136889
          -7.7715611724e-16 9.102569809e-10 0.00096084965696 0.00017888553523 -7.0681506441e-05 0.00096323194089
          0.00036292009708 -0.00013211609601 0.00094295780902 0.00055035868428 -0.00018729201157 0.00091124975474
          0.00073003636561 -0.00023317958883 0.00086209445775 0.00091327002167 -0.00027672649306 0.00079687870696
          0.0010768960616 -0.0003230286133 0.00072015224634 0.0012382942572 -0.00036972517639 0.00063433368872
          0.0014063487502 -0.00041823423088 0.00054945818981 0.0015610940676 -0.0004228677813 0.00048300432487
          0.001702415747 -0.00045877359683 0.00040813871966 0.0018270590461 -0.00056791201347 0.00029765993196
          0.0019345960419 -0.00037675780446 0.00021611605427 -0.0020582680305 0.00058078414388 0.0001737746015
          -0.0019415514732 0.00043463644578 0.00044248031265 -0.0018143401896 0.000399287796 0.00042031847337
          -0.0016563130348 0.00047883597475 0.00049333352771 -0.00149429245 0.00044140088817 0.00054636970627
          -0.001310966783 0.00039072478428 0.00063025095309 -0.0011340754232 0.0003301832578 0.00071379547423
          -0.0009610145525 0.00028305690956 0.00079768008836 -0.00077193521543 0.00023829206316 0.00086510264017
          -0.00057108403696 0.00018472546374 0.00091272465701 -0.00038039420914 0.00012740972064 0.00094119295586
          -0.00018340357427 6.7431242181e-05 0.00095273504226 -4.4408920985e-16 2.5217365973e-09 0.00095323430204
          0.00018340357427 -6.7418323016e-05 0.00095273373357 0.00038039420914 -0.00012739475836 0.00094119346355
          0.00057108403695 -0.00018472117793 0.00091272635664 0.00077193521542 -0.00023830650135 0.00086510302017
          0.0009610145525 -0.00028305868383 0.00079768041272 0.0011340754232 -0.00033019169094 0.00071379517323
          0.001310966783 -0.00039073290221 0.00063024806805 0.00149429245 -0.00044140874386 0.0005463668474
          0.0016563130348 -0.00047883969555 0.00049332985195 0.0018143401895 -0.00039928587823 0.00042031743307
          0.0019415514732 -0.0004346319578 0.00044247999566 0.0020582680305 -0.00058077760515 0.00017377493474
          -0.0021635741016 0.00031658519706 0.00030129189974 -0.0020454159418 0.00054466488088 0.00042431831807
          -0.0019046869742 0.00047094596432 0.00042404485595 -0.0017524164437 0.00051379391387 0.00049577439561
          -0.0015811039392 0.00046637838294 0.00054352233789 -0.0013853649567 0.0004158702922 0.00062601376154
          -0.0011908035068 0.00035976342905 0.00070953798601 -0.00099883904122 0.00030903834823 0.00079420486072
          -0.00080015306317 0.00025205786548 0.00086448211959 -0.00059189635208 0.00019312684151 0.00091349917287
          -0.00038902680383 0.00013157005086 0.00094194827075 -0.00019312244477 6.5616810769e-05 0.00095229572956
          -1.1102230246e-15 1.3065540427e-08 0.00095246396529 0.00019312244477 -6.5596512812e-05 0.00095229405063
          0.00038902680383 -0.0001315651313 0.00094194694153 0.00059189635208 -0.00019312361613 0.00091349808584
          0.00080015306317 -0.00025207002306 0.00086448206616 0.00099883904122 -0.00030903465635 0.00079420602175
          0.0011908035068 -0.00035975949677 0.00070953929069 0.0013853649567 -0.00041588742091 0.00062601534982
          0.0015811039392 -0.00046638896009 0.00054352603527 0.0017524164437 -0.00051379725032 0.00049577636014
          0.0019046869742 -0.00047094550957 0.00042404644034 0.0020454159418 -0.0005446613909 0.00042431958224
          0.0021635741016 -0.00031657996941 0.00030129292557 -0.0022707074361 0.00036650833205 0.0002261126525
          -0.0021487471471 0.00059092334499 0.0003871692371 -0.0020110163334 0.00051279153316 0.0004166247671
          -0.0018454877507 0.00049002547096 0.00046506397261 -0.0016625508331 0.0004948825713 0.00053951695892
          -0.0014480315524 0.0004394099712 0.00062206465133 -0.0012414776159 0.00037605319053 0.00070679425992
          -0.0010256727601 0.00032129325617 0.00078760527363 -0.00082866832823 0.00025335756826 0.0008583152718
          -0.00061529700976 0.0001942586405 0.00091261012992 -0.00041277719001 0.00012332804386 0.00094087018893
          -0.00020745965372 6.9454080147e-05 0.00095347886301 -5.5511151231e-16 4.5958168382e-09 0.00095291174896
          0.00020745965371 -6.9433233599e-05 0.00095347802484 0.00041277719001 -0.00012331907638 0.00094086906769
          0.00061529700976 -0.00019424781602 0.00091260836255 0.00082866832823 -0.00025336285384 0.00085831409684
          0.0010256727601 -0.00032128885166 0.00078760606804 0.0012414776159 -0.00037605075657 0.00070679643545
          0.0014480315524 -0.00043941356929 0.00062206938359 0.0016625508331 -0.00049489449141 0.00053952343635
          0.0018454877507 -0.00049002673911 0.00046507050378 0.0020110163334 -0.00051279358168 0.00041662951174
          0.0021487471471 -0.00059092444879 0.0003871721716 0.0022707074361 -0.00036650833205 0.00022611357741
          -0.0023942724303 0.00068660984574 0.00030274227558 -0.002267537316 0.00057131124999 0.00033827897131
          -0.0021234552851 0.00052265254692 0.00040458694134 -0.0019433731682 0.00057542758364 0.00047282956296
          -0.0017439935705 0.00052242848569 0.00053799761888 -0.0015113006148 0.00046529664407 0.00062502915694
          -0.0012850751756 0.00039606650672 0.00070664132359 -0.0010632661707 0.00033491949515 0.0007856641783
          -0.0008594338903 0.00027149388134 0.00085614657662 -0.00064767930734 0.00020019591626 0.00090899467435
          -0.00043352420005 0.00012961167184 0.00094058133395 -0.00022098845123 7.056960455e-05 0.00095489856868
          -5.5511151231e-16 5.1966346781e-09 0.00095670662277 0.00022098845123 -7.0550492083e-05 0.00095489795319
          0.00043352420005 -0.00012959941234 0.00094057863388 0.00064767930733 -0.00020018846061 0.00090898973896
          0.0008594338903 -0.0002714983364 0.00085614155355 0.0010632661707 -0.00033491248055 0.00078566252036
          0.0012850751756 -0.00039606303528 0.00070664139013 0.0015113006148 -0.00046530383443 0.000625034216
          0.0017439935704 -0.00052243496287 0.00053800351929 0.0019433731682 -0.00057543053382 0.00047283583028
          0.0021234552851 -0.00052265822814 0.00040459161109 0.002267537316 -0.00057131951646 0.00033828194765
          0.0023942724303 -0.00068661664452 0.00030274376386 -0.0024785116977 0.00057655781692 0.00017469637109
          -0.0023510220161 0.00050088858391 0.00041743462884 -0.0022066056116 0.00050178869612 0.0004667967277
          -0.0020243654729 0.00058121891415 0.00047648825613 -0.0018140255008 0.00054226761574 0.0005394824201
          -0.0015801871019 0.00048149102987 0.00062836299449 -0.0013439812651 0.00041039630957 0.00070892814284
          -0.0011208505444 0.00034551000813 0.00078467760186 -0.00090409489101 0.0002839325424 0.00085377321504
          -0.00067531415244 0.00020691950833 0.0009057674019 -0.00045267884226 0.00013285217705 0.00093892639295
          -0.00022385388156 6.777004601e-05 0.00096001085943 -5.5511151231e-16 2.4314421587e-09 0.00096709936808
          0.00022385388156 -6.7776258156e-05 0.00096000710564 0.00045267884226 -0.00013282087396 0.00093892647483
          0.00067531415244 -0.00020691912364 0.00090576226555 0.00090409489101 -0.00028392853614 0.00085376756178
          0.0011208505444 -0.00034550192361 0.00078467412112 0.0013439812651 -0.00041039216372 0.00070892448696
          0.0015801871019 -0.00048149065462 0.00062836254384 0.0018140255008 -0.00054226801936 0.0005394840196
          0.0020243654729 -0.00058122298054 0.00047648934551 0.0022066056116 -0.00050179721862 0.00046679793358
          0.0023510220161 -0.00050090133836 0.00041743630853 0.0024785116977 -0.00057657115444 0.00017469819262
          -0.002576591158 0.00075595059072 0.00021816120373 -0.0024361969076 0.00063992656041 0.00033865380465
          -0.0022970382191 0.00060250429887 0.00044542062119 -0.0021094728858 0.00058464355276 0.00048146697752
          -0.0018969653509 0.00056920051297 0.00054590325303 -0.001650021933 0.00050225543198 0.00063079287003
          -0.0014092037539 0.0004205371397 0.00071281209287 -0.0011666331684 0.00035487390077 0.00078799818725
          -0.00093913050007 0.00028622125566 0.00084968831658 -0.00069427714709 0.00021633440504 0.00089751377262
          -0.00045610936437 0.00013394621509 0.0009317566853 -0.00023057929757 7.4290619875e-05 0.00095145527835
          -7.7715611724e-16 -7.3096095843e-10 0.00096083267144 0.00023057929757 -7.4291865148e-05 0.00095145031345
          0.00045610936437 -0.00013393570722 0.00093175625984 0.00069427714708 -0.00021633146787 0.00089750949122
          0.00093913050007 -0.00028620937579 0.00084968326879 0.0011666331684 -0.0003548631739 0.00078799481844
          0.0014092037539 -0.00042052900385 0.00071280958178 0.001650021933 -0.000502249152 0.00063079074503
          0.0018969653509 -0.00056919962928 0.0005459002721 0.0021094728858 -0.00058464797467 0.0004814659484
          0.0022970382191 -0.00060251448913 0.0004454200095 0.0024361969076 -0.00063994183997 0.00033865348765
          0.002576591158 -0.00075596874522 0.00021816153697 -0.002677431592 0.00046371344784 0.00023970703064
          -0.0025414253427 0.00073116880051 0.00039552026221 -0.0023881233371 0.00065865368785 0.00041841210089
          -0.0021962212695 0.0006184826662 0.00050830635135 -0.0019695526063 0.00058207957452 0.00054533527013
          -0.0017188597555 0.00052391058711 0.00063240608628 -0.0014625375582 0.00044485735018 0.00071108298745
          -0.0012123610388 0.00036423371887 0.00079021543121 -0.00096667234241 0.00029941062323 0.00085426326425
          -0.00071730593674 0.00022682640847 0.00089651934482 -0.00047616344002 0.00015156548588 0.00093049933847
          -0.0002350724713 8.0848037843e-05 0.0009543893354 -5.5511151231e-16 -9.3563486958e-09 0.00096747826815
          0.0002350724713 -8.084602137e-05 0.00095439003227 0.00047616344002 -0.00015156492778 0.00093049732038
          0.00071730593674 -0.00022682313132 0.00089651748798 0.00096667234241 -0.00029940135581 0.00085425837801
          0.0012123610388 -0.00036422418353 0.00079021162317 0.0014625375582 -0.0004448519485 0.00071107984346
          0.0017188597555 -0.00052390607684 0.00063240097978 0.0019695526063 -0.00058207472876 0.00054532959734
          0.0021962212695 -0.00061848650252 0.00050830318756 0.0023881233371 -0.00065866250427 0.00041840946892
          0.0025414253427 -0.00073118205516 0.00039551809269 0.002677431592 -0.00046372794583 0.00023970520912
          -0.0027864617654 0.00045773046574 0.00024886701785 -0.0026381953414 0.00073857300699 0.00043495745548
          -0.0024740654808 0.0006675935927 0.00046525526075 -0.002270281198 0.00062753398959 0.00050517615495
          -0.0020303805312 0.00059626929091 0.00055229271667 -0.001767919335 0.00053845531808 0.00063324391892
          -0.0015058919591 0.00046157370572 0.00071413386954 -0.0012458976552 0.00037810256148 0.00079471959655
          -0.00099684560064 0.00031280109703 0.00085341277708 -0.00074940948263 0.00023730395782 0.00089934045166
          -0.00049893777848 0.00016416039451 0.00093155694218 -0.00024824087993 8.8417643828e-05 0.00095796254128
          -5.5511151231e-16 3.7635881078e-09 0.0009678050996 0.00024824087993 -8.8432261547e-05 0.00095796352031
          0.00049893777848 -0.00016415948921 0.00093155585708 0.00074940948263 -0.0002373046511 0.00089933863967
          0.00099684560064 -0.00031280361379 0.0008534072894 0.0012458976552 -0.00037809753273 0.00079471550408
          0.0015058919591 -0.00046156628973 0.00071412762349 0.001767919335 -0.00053845381588 0.00063323810567
          0.0020303805312 -0.00059626556644 0.00055228617912 0.002270281198 -0.00062753192131 0.00050516971749
          0.0024740654808 -0.00066759609596 0.0004652501551 0.0026381953414 -0.00073857760078 0.0004349538908
          0.0027864617654 -0.00045773569338 0.00024886440062 -0.0028929559687 0.00072748381906 0.00022095846962
          -0.0027377932604 0.0006627018466 0.00030791075657 -0.0025630297338 0.00063874241776 0.00040956791298
          -0.002346156274 0.00062560146812 0.00049408581814 -0.0020956114229 0.00061687506029 0.00054776560909
          -0.001822832961 0.00055540024944 0.00063344298428 -0.0015570591829 0.00047868101072 0.00071325229286
          -0.0012871722795 0.00039597670061 0.00079183334999 -0.0010264655538 0.00032489531484 0.00085118792906
          -0.00077721155011 0.00025522110867 0.00089814630403 -0.000522197571 0.00018142818667 0.00093073140748
          -0.00026494587949 9.9925672927e-05 0.00095356202361 -8.881784197e-16 4.9257899981e-09 0.00096695371366
          0.00026494587948 -9.9919550934e-05 0.00095356118898 0.00052219757099 -0.00018144495077 0.00093073298849
          0.00077721155011 -0.00025523497517 0.00089814553363 0.0010264655538 -0.00032489650918 0.00085118514789
          0.0012871722795 -0.00039597652658 0.000791831756 0.0015570591829 -0.00047868459172 0.00071324995979
          0.001822832961 -0.00055540388352 0.00063343942148 0.0020956114229 -0.00061687901658 0.00054775923487
          0.002346156274 -0.00062560183255 0.00049408147126 0.0025630297338 -0.00063874166909 0.00040956443615
          0.0027377932604 -0.00066269785643 0.00030790753754 0.0028929559687 -0.00072747743094 0.00022095651888
          -0.0030008758237 0.00051838849131 0.00017010911091 -0.0028395362465 0.0005236731719 0.00030502985535
          -0.0026507081171 0.00072477067237 0.00042911482172 -0.0024290316576 0.00067680695851 0.00050755771979
          -0.0021694004473 0.00062960550809 0.0005500076007 -0.0018881050108 0.00056133603642 0.00063414223585
          -0.0016111670172 0.00048818057879 0.00071806521038 -0.001338725642 0.00041657723432 0.00079113635655
          -0.0010687901029 0.0003384338616 0.00085362450085 -0.00080714798205 0.00025662610247 0.00089730308847
          -0.00054195739094 0.00018393556452 0.00092813858719 -0.00027174095041 9.8036585881e-05 0.00095018738269
          -4.4408920985e-16 4.5670334181e-10 0.00095812767383 0.00027174095041 -9.8050310893e-05 0.00095018856336
          0.00054195739094 -0.0001839222331 0.00092813740793 0.00080714798204 -0.00025662782575 0.00089730386128
          0.0010687901029 -0.00033843295457 0.00085362633411 0.0013387256419 -0.00041658049456 0.00079113595789
          0.0016111670172 -0.00048817802149 0.00071806309151 0.0018881050108 -0.00056133299456 0.00063413817991
          0.0021694004473 -0.00062960486687 0.00055000124384 0.0024290316576 -0.00067680525671 0.00050755280571
          0.0026507081171 -0.00072476645727 0.00042911143273 0.0028395362465 -0.00052366665901 0.00030502851687
          0.0030008758237 -0.00051837829607 0.00017010888079 -0.0031065121359 0.00057758347627 0.00028013780435
          -0.0029387312747 0.00057821718821 0.00028263529033 -0.0027444033049 0.00061465108463 0.00044203493946
          -0.0025128523111 0.00071561288216 0.0004889256496 -0.0022434053207 0.00065829731165 0.00055267239892
          -0.0019590198013 0.0005849680402 0.00064277519431 -0.0016766463768 0.00051099649729 0.00072254797683
          -0.0013926317899 0.00043508883671 0.00079433146133 -0.0011139684731 0.00035953832591 0.0008517058817
          -0.00084207015731 0.00027579775662 0.00089464837471 -0.00056248147506 0.0001893569492 0.00092495297429
          -0.00028056131827 9.3052091467e-05 0.00094220004148 -8.881784197e-16 -9.3817157376e-09 0.00094284061686
          0.00028056131827 -9.3060490922e-05 0.00094220304685 0.00056248147506 -0.00018934717977 0.00092495231656
          0.0008420701573 -0.00027579732461 0.00089465040175 0.0011139684731 -0.00035954617615 0.00085170967038
          0.0013926317899 -0.00043509347365 0.00079433391649 0.0016766463768 -0.00051099997716 0.00072254892562
          0.0019590198013 -0.00058497477838 0.00064277437771 0.0022434053207 -0.00065829576398 0.00055266907015
          0.0025128523111 -0.00071560940134 0.0004889240766 0.0027444033049 -0.00061464393596 0.00044203397527
          0.0029387312747 -0.00057820645867 0.00028263520118 0.0031065121359 -0.00057757379526 0.00028013859783
          -0.0032060600008 0.00053945377507 0.00018439472614 -0.0030326870964 0.00056076314676 0.00040315003009
          -0.0028377361358 0.00062431955842 0.00045001711093 -0.0025973314514 0.00074325207188 0.00050441361335
          -0.0023263015063 0.00069482057056 0.00055299163763 -0.0020370586562 0.00061537569706 0.00064667103263
          -0.0017471744111 0.00053334790686 0.00072857051319 -0.0014551502024 0.00045449422399 0.000794720926
          -0.0011600578666 0.00036917970667 0.00085183110775 -0.00087777411349 0.00028216049598 0.00089319480789
          -0.00058901196225 0.00019348060451 0.00092345808339 -0.00029484066749 9.1037317196e-05 0.00094237518985
          -7.7715611724e-16 5.1514075228e-09 0.00094799727173 0.00029484066749 -9.1036750104e-05 0.00094237588171
          0.00058901196225 -0.00019349217283 0.00092345789608 0.00087777411349 -0.0002821639113 0.0008931978124
          0.0011600578666 -0.00036918339674 0.00085183570691 0.0014551502024 -0.00045449985022 0.00079472419607
          0.0017471744111 -0.00053334869912 0.00072857299522 0.0020370586562 -0.00061537577127 0.00064667356863
          0.0023263015063 -0.00069482458248 0.00055299225676 0.0025973314514 -0.00074324748044 0.00050441507646
          0.0028377361358 -0.00062431049894 0.00045001823341 0.0030326870964 -0.00056075114556 0.00040315089359
          0.0032060600008 -0.00053944347039 0.00018439495848 -0.0033149884116 0.00075311063305 0.00025816339662
          -0.0031416726398 0.00075013068986 0.00035659986833 -0.0029367501904 0.00075774093906 0.0004505370469
          -0.0026914813089 0.00076315353269 0.00048248307618 -0.0024124047298 0.00073309546267 0.00055497020331
          -0.0021171640112 0.00065324206315 0.00064561197066 -0.0018114184405 0.00056233720187 0.00072835740989
          -0.0015106392345 0.00047183409373 0.00078969392839 -0.0012123458619 0.00037411019905 0.00084740269476
          -0.00091735121247 0.0002832603306 0.00089162901351 -0.00061903793773 0.00019107073882 0.00092513330784
          -0.0003118512296 9.0522333503e-05 0.0009458337517 -7.7715611724e-16 -1.4342733667e-09 0.00095119390382
          0.0003118512296 -9.0526013055e-05 0.00094583256664 0.00061903793773 -0.00019104853134 0.00092513254866
          0.00091735121247 -0.0002832539949 0.00089163189232 0.0012123458619 -0.00037411811401 0.00084740515785
          0.0015106392345 -0.00047183401234 0.0007896972298 0.0018114184405 -0.00056233688288 0.00072836028998
          0.0021171640112 -0.00065325292945 0.00064561495012 0.0024124047298 -0.00073309116957 0.00055497236642
          0.0026914813089 -0.00076315290714 0.00048248515059 0.0029367501904 -0.00075773420105 0.00045053847299
          0.0031416726397 -0.00075012405631 0.00035660035816 0.0033149884116 -0.00075310602907 0.00025816339662
          -0.0034123533297 0.0008638827119 0.00013543684414 -0.0032355936591 0.00085201150834 0.00030714000164
          -0.0030278235165 0.00083807112839 0.00044821384031 -0.0027759454137 0.00081738705943 0.00049360507747
          -0.0024986482031 0.00077541954523 0.00055637139416 -0.0021910708431 0.00069361132096 0.00064209807569
          -0.0018836891456 0.00058910287079 0.00072105297072 -0.0015703253746 0.00048552971491 0.00078308406652
          -0.0012608639648 0.00038122622765 0.00084566203817 -0.00095625183659 0.00028947674412 0.00089112283575
          -0.00064919752976 0.00019530142032 0.00092975124213 -0.00032321583296 9.8225748917e-05 0.00095666612242
          -2.2204460493e-16 5.293675498e-09 0.00096611227921 0.00032321583296 -9.823395138e-05 0.0009566642386
          0.00064919752975 -0.00019530018034 0.00092975102976 0.00095625183659 -0.0002894802875 0.00089112205237
          0.0012608639648 -0.00038122787467 0.00084566341728 0.0015703253746 -0.00048552974491 0.00078308419962
          0.0018836891456 -0.0005891113319 0.00072105284198 0.0021910708431 -0.0006936187613 0.0006420980545
          0.0024986482031 -0.0007754219766 0.00055637184724 0.0027759454137 -0.00081738301621 0.00049360376833
          0.0030278235165 -0.00083806319835 0.00044821295101 0.0032355936591 -0.00085200207602 0.00030713987065
          0.0034123533297 -0.00086387397836 0.00013543707426 -0.0035229254009 0.0008576356054 0.00018555142367
          -0.0033443046378 0.00087633419719 0.00039169207239 -0.0031274001824 0.0008740783731 0.00044503753156
          -0.0028761661094 0.00085505269759 0.00050641892582 -0.0025891040135 0.00080822657913 0.0005609198668
          -0.0022703308481 0.00072122659122 0.00064312955642 -0.0019434850955 0.00061071030089 0.00072293307859
          -0.0016238430184 0.00050048331925 0.00078442239434 -0.0013034683145 0.00039171774362 0.00084135469694
          -0.00098473025855 0.0002943579465 0.0008937206919 -0.00065677779789 0.00019763424028 0.00093372020638
          -0.0003346192658 0.00010315829227 0.00096479842822 -5.5511151231e-16 -2.6561308708e-11 0.00096838044296
          0.0003346192658 -0.00010315448398 0.00096479830335 0.00065677779789 -0.00019763580596 0.00093372049394
          0.00098473025854 -0.0002943660326 0.00089372101793 0.0013034683144 -0.00039172508164 0.00084135293134
          0.0016238430184 -0.0005004843989 0.00078442276005 0.0019434850955 -0.00061070912839 0.00072293225993
          0.0022703308481 -0.00072123639143 0.00064312931463 0.0025891040135 -0.00080823318842 0.00056091964962
          0.0028761661094 -0.0008550517363 0.00050641816055 0.0031274001824 -0.00087407054974 0.00044503699477
          0.0033443046378 -0.00087632438875 0.00039169171355 0.0035229254009 -0.00085762958089 0.00018555119355
          -0.0036331433298 0.00073645022285 0.00021395432759 -0.0034534908112 0.00079446348914 0.00031221688554
          -0.0032291770797 0.00085337230033 0.00042395377045 -0.0029749794122 0.00085388349664 0.0005110612802
          -0.0026824306987 0.00082711543123 0.00056147546481 -0.0023475692678 0.0007371995666 0.0006438475416
          -0.0020124351563 0.00062483632346 0.0007220750729 -0.001674764704 0.00051640377769 0.00078422043265
          -0.0013370702015 0.00041033828653 0.00084513198669 -0.0010037348948 0.00030709216122 0.00090175737664
          -0.00066903396147 0.00020983558787 0.00094162659622 -0.00033226747203 0.00010812598625 0.00096887792455
          -8.881784197e-16 6.4000702515e-09 0.00097966994817 0.00033226747203 -0.00010813101574 0.00096887707846
          0.00066903396147 -0.00020983713544 0.00094162420829 0.0010037348948 -0.00030709221158 0.0009017558971
          0.0013370702015 -0.00041033930934 0.00084513165655 0.001674764704 -0.0005164016026 0.00078421928075
          0.0020124351563 -0.00062484043207 0.00072207472029 0.0023475692678 -0.00073720717537 0.00064384829058
          0.0026824306987 -0.00082712114568 0.00056147879767 0.0029749794122 -0.0008538805091 0.00051106320064
          0.0032291770797 -0.00085336637472 0.00042395496337 0.0034534908112 -0.00079445576663 0.00031221664284
          0.0036331433298 -0.0007364413387 0.00021395386513 -0.0037522617169 0.00085916361046 0.00021916555913
          -0.0035579672336 0.00090517734555 0.00036287993869 -0.0033323254193 0.00093081578783 0.00047543794425
          -0.003064772205 0.00090026328336 0.00051049802593 -0.0027654971292 0.00084998835552 0.00056223245357
          -0.0024191625289 0.00075371932548 0.00064636350658 -0.0020739975811 0.00064485224117 0.0007260742848
          -0.0017205542783 0.00054326734754 0.00079181166794 -0.0013748410634 0.00043786791373 0.00085489667775
          -0.0010201956521 0.00032616275726 0.00090487675812 -0.00067624941768 0.00021850978594 0.00094762984048
          -0.00033581718046 0.00011495147236 0.0009705309247 -8.881784197e-16 -2.4905186802e-09 0.00098315644855
          0.00033581718046 -0.00011495495009 0.00097053065134 0.00067624941768 -0.00021849247147 0.00094763124269
          0.0010201956521 -0.00032616258616 0.00090487401377 0.0013748410634 -0.00043786959934 0.00085489480284
          0.0017205542783 -0.00054327009014 0.00079181138925 0.0020739975811 -0.00064485136401 0.00072607453865
          0.0024191625289 -0.00075372241654 0.0006463660411 0.0027654971292 -0.00084999194208 0.00056223598565
          0.003064772205 -0.00090026608918 0.00051050128343 0.0033323254193 -0.00093081386564 0.00047544021521
          0.0035579672336 -0.0009051713925 0.00036288147803 0.0037522617169 -0.00085915550059 0.00021916568835
          -0.0038632402166 0.00087338582215 0.00018396010422 -0.0036564030724 0.00091701403621 0.00038815224148
          -0.0034236411779 0.00078608185832 0.00044404188904 -0.0031502053507 0.00085879664477 0.00050763988692
          -0.0028359592861 0.00086515748605 0.00056614473579 -0.0024851817634 0.00077215929189 0.00064902471798
          -0.0021253813476 0.00065748478354 0.00072961507017 -0.0017697674649 0.00055280390046 0.00079728708824
          -0.0014076998026 0.00045542574853 0.00085710807174 -0.0010394910083 0.00034984416129 0.00090960091313
          -0.00069041345573 0.00022971490103 0.00094762593524 -0.00034469182088 0.00011875954805 0.00097131357645
          -8.881784197e-16 2.8133646524e-09 0.00098050484398 0.00034469182088 -0.000118755243 0.00097131476236
          0.00069041345572 -0.00022972858583 0.00094762776207 0.0010394910083 -0.00034984736009 0.00090959934352
          0.0014076998026 -0.00045541953294 0.00085710648172 0.0017697674649 -0.000552801202 0.00079728808291
          0.0021253813476 -0.00065748607681 0.00072961745729 0.0024851817634 -0.00077216517793 0.00064902738188
          0.0028359592861 -0.00086516016618 0.0005661488276 0.0031502053507 -0.00085879181901 0.00050764407983
          0.0034236411779 -0.00078607814205 0.00044404513269 0.0036564030724 -0.0009170104073 0.000388154728
          0.0038632402166 -0.00087338100517 0.0001839615925 -0.0039603754157 0.00075195071608 0.0003124956789
          -0.0037457935564 0.00083258466972 0.0003946622324 -0.0035052330409 0.00091185006302 0.00047257291659
          -0.0032257461452 0.00092125316511 0.00049979904631 -0.0029045280268 0.00088348900087 0.00056517937299
          -0.0025430073718 0.00078956535746 0.0006515654067 -0.0021763424499 0.00068101311235 0.00073485414339
          -0.0018085027419 0.00057704083645 0.00080265315755 -0.0014379081877 0.00047435149811 0.0008615909292
          -0.0010664513219 0.00035357249945 0.00090605921632 -0.00070738083383 0.00023236632647 0.00093979249707
          -0.0003503308088 0.00012071157356 0.00096468163969 -1.1102230246e-15 -7.9628922345e-09 0.00097235810008
          0.0003503308088 -0.00012071365377 0.000964682237 0.00070738083383 -0.00023237060707 0.00093979153919
          0.0010664513219 -0.00035356940756 0.00090605713028 0.0014379081877 -0.00047434613213 0.00086158878741
          0.0018085027419 -0.00057703696101 0.00080265344921 0.0021763424499 -0.00068101299158 0.00073485535569
          0.0025430073718 -0.00078956111027 0.00065156646701 0.0029045280268 -0.00088348845935 0.00056518151246
          0.0032257461452 -0.0009212537507 0.00049980118097 0.0035052330409 -0.00091185143685 0.00047257493688
          0.0037457935564 -0.00083258669463 0.00039466408492 0.0039603754157 -0.00075195437258 0.00031249783367
          -0.0040674817111 0.00086579228864 0.00023018403061 -0.0038410778588 0.00092734472512 0.00038767861934
          -0.0035990861973 0.00098016182955 0.00041651767188 -0.003303059247 0.00090085090221 0.00051666083772
          -0.0029654556561 0.00090899200283 0.00056296676757 -0.0025956902172 0.00081527343268 0.00065391015794
          -0.0022251152319 0.0007055325304 0.00073473270091 -0.001857387649 0.00059261905673 0.00080793565137
          -0.0014741779944 0.00048110659829 0.00086574209315 -0.0010998098037 0.00036455919979 0.0009032841975
          -0.00072640017249 0.00024412332402 0.00093378028837 -0.00036374616331 0.00012454064109 0.0009501496625
          -7.7715611724e-16 -7.9449633539e-09 0.0009587274583 0.00036374616331 -0.00012455401187 0.00095014753388
          0.00072640017249 -0.00024412104367 0.00093378014738 0.0010998098037 -0.00036455482445 0.00090328308472
          0.0014741779944 -0.00048109833956 0.00086573916554 0.001857387649 -0.0005926092707 0.00080793443313
          0.0022251152319 -0.00070553372774 0.00073473171418 0.0025956902172 -0.00081526543646 0.00065390888903
          0.0029654556561 -0.00090898707909 0.00056296368445 0.003303059247 -0.00090085106842 0.00051665996258
          0.0035990861973 -0.00098016404567 0.00041651729337 0.0038410778588 -0.00092735117837 0.00038767903486
          0.0040674817111 -0.00086580155899 0.00023018482631 -0.0041617248026 0.00083951424809 0.00013786562741
          -0.0039275782428 0.00092050998639 0.0003687066202 -0.0036681621518 0.00098834048576 0.00043554989749
          -0.0033660004117 0.00098088606378 0.00050116408062 -0.0030242432718 0.00092768709862 0.00055817455556
          -0.0026391890899 0.00083293058009 0.00064613103186 -0.0022727550214 0.00072859843042 0.00073068794529
          -0.0018932011875 0.00061158147249 0.00080334499489 -0.001510302335 0.00049119233746 0.00086255167508
          -0.0011296331238 0.00036453224558 0.00089614541133 -0.00074757625411 0.00024554436969 0.00091983407815
          -0.00037607927648 0.0001265402141 0.00093405207026 -1.2212453271e-15 1.2226755164e-09 0.00093904106177
          0.00037607927648 -0.00012653938464 0.00093405503187 0.00074757625411 -0.000245552948 0.00091983756963
          0.0011296331238 -0.00036452560457 0.00089614570015 0.001510302335 -0.00049117765399 0.00086254708842
          0.0018932011875 -0.00061157556223 0.00080334297624 0.0022727550214 -0.00072860228684 0.0007306842726
          0.0026391890899 -0.00083293212354 0.00064612641161 0.0030242432718 -0.00092768099214 0.0005581695615
          0.0033660004117 -0.00098088446857 0.00050115960769 0.0036681621518 -0.00098833943031 0.00043554637623
          0.0039275782428 -0.0009205123288 0.0003687043197 0.0041617248026 -0.00083952272157 0.000137864036
          -0.0042649350573 0.0010585475261 0.00021500574691 -0.0040238160917 0.00081471994465 0.00033789303468
          -0.0037517259138 0.00093531227313 0.00044636712686 -0.0034435405836 0.00097505698224 0.0004772914841
          -0.0030873341342 0.00093929030956 0.00054963586375 -0.0026988104067 0.00084632521929 0.00063927635986
          -0.002320846836 0.00074604556781 0.00072518127285 -0.0019317733345 0.0006243502033 0.00080022457772
          -0.0015455403193 0.00049700203821 0.00085127152312 -0.0011520953777 0.00036699588498 0.00089403860919
          -0.00076634122478 0.00024378449901 0.00091923123014 -0.00038290992868 0.00012811224409 0.00092899641156
          -7.7715611724e-16 6.7134764414e-10 0.00093430238212 0.00038290992868 -0.0001280988283 0.0009289940447
          0.00076634122478 -0.0002438183315 0.00091923545528 0.0011520953777 -0.00036701294768 0.0008940408992
          0.0015455403193 -0.00049699008311 0.0008512663099 0.0019317733345 -0.00062435019239 0.00080022205256
          0.002320846836 -0.0007460476133 0.00072517845112 0.0026988104067 -0.00084633213973 0.00063927233452
          0.0030873341342 -0.00093929373013 0.0005496331219 0.0034435405836 -0.00097505159067 0.00047728827623
          0.0037517259138 -0.00093530776544 0.00044636410343 0.0040238160917 -0.00081471364105 0.0003378893583
          0.0042649350573 -0.0010585424491 0.00021500243711 -0.0043625441122 0.0011154167147 0.00027343481243
          -0.0041182988824 0.00086708674094 0.000303602245 -0.0038402633452 0.00098431663295 0.00046321902241
          -0.003521399275 0.0010061181882 0.00050172094598 -0.0031533488762 0.00096694008839 0.00055895002668
          -0.0027512135067 0.00086140102049 0.00064038743766 -0.0023655795688 0.00075978949741 0.00072068198812
          -0.0019719908192 0.00063769286985 0.00079490883877 -0.0015751524824 0.00050303684932 0.00084849952918
          -0.0011828618423 0.00036897213883 0.0008922113828 -0.00079038487954 0.00024752254963 0.00091531454426
          -0.00039433671403 0.00012555482869 0.00092500826519 -4.4408920985e-16 3.9944507702e-09 0.00092862352368
          0.00039433671403 -0.00012554916427 0.00092500968254 0.00079038487954 -0.00024754906221 0.00091531628483
          0.0011828618423 -0.00036897416293 0.00089221368093 0.0015751524824 -0.00050302521123 0.00084849751004
          0.0019719908192 -0.00063770070571 0.00079490710935 0.0023655795688 -0.00075979653182 0.00072067970408
          0.0027512135067 -0.00086139400695 0.00064038577246 0.0031533488762 -0.00096693179354 0.00055894995484
          0.003521399275 -0.0010061172239 0.00050171909134 0.0038402633452 -0.00098431299891 0.00046321727974
          0.0041182988824 -0.00086707886879 0.00030360020647 0.0043625441122 -0.0011154036372 0.00027343276079
          -0.0044792214298 0.0010299848524 0.00031516310808 -0.0042301391646 0.00081608520904 0.00039491829401
          -0.0039399442399 0.00095927289971 0.00047065809193 -0.0036105701876 0.001007927204 0.00052342862489
          -0.003225408578 0.00097723429242 0.00056529172155 -0.002817836796 0.00086908902326 0.00064591432579
          -0.0024149461201 0.00076793318139 0.0007263183859 -0.0020164380304 0.00064831568825 0.00079268585984
          -0.0016157370248 0.00051187667725 0.0008425963236 -0.0012153504353 0.0003751280244 0.00088470267167
          -0.00081713046638 0.00024198242329 0.00091374225314 -0.00040978125917 0.00012229550268 0.00092702904808
          -2.2204460493e-16 5.2102477888e-09 0.00092698010009 0.00040978125917 -0.00012228878079 0.00092703081969
          0.00081713046637 -0.00024199489679 0.00091374432173 0.0012153504353 -0.00037513721867 0.00088470531137
          0.0016157370248 -0.00051186839542 0.00084259726842 0.0020164380304 -0.00064832305958 0.00079268767134
          0.0024149461201 -0.00076794182369 0.00072632053095 0.002817836796 -0.00086908236657 0.00064591539774
          0.003225408578 -0.00097723435345 0.00056529247113 0.0036105701876 -0.0010079226645 0.00052342928027
          0.0039399442399 -0.00095926793593 0.00047065878702 0.0042301391646 -0.00081607470597 0.0003949194272
          0.0044792214298 -0.001029968269 0.00031516436403 -0.004590601283 0.0011574399595 0.00032760031575
          -0.0043383506297 0.00092460885127 0.00032912172911 -0.0040437597261 0.0010388206191 0.00047472374167
          -0.0037004170819 0.0010538372317 0.00051444644695 -0.0033150872954 0.0010044558939 0.0005753421621
          -0.0028996992395 0.00089243346708 0.00065262111558 -0.0024841214806 0.00077794647634 0.0007309548987
          -0.0020745712819 0.00065584382726 0.00079616024048 -0.0016584077279 0.00051765626921 0.00084764989378
          -0.00124658867 0.0003783729491 0.00088937520006 -0.00083910756134 0.00024416137698 0.00091502112816
          -0.0004191482628 0.00011877603104 0.00092652580029 -5.5511151231e-16 2.0092265629e-09 0.00093180571506
          0.0004191482628 -0.00011875664319 0.00092652805187 0.00083910756134 -0.00024419059371 0.00091502143134
          0.00124658867 -0.00037837265637 0.00088937595065 0.0016584077279 -0.00051764369399 0.00084765545355
          0.0020745712819 -0.00065584733852 0.00079616295147 0.0024841214806 -0.00077795731377 0.00073095949593
          0.0028996992395 -0.00089242220626 0.00065262678872 0.0033150872953 -0.0010044554516 0.00057534657191
          0.0037004170819 -0.0010538357798 0.00051445096397 0.0040437597261 -0.0010388166925 0.0004747276544
          0.0043383506297 -0.0009246011884 0.00032912553648 0.004590601283 -0.0011574320002 0.00032760339544
          -0.0046916435859 0.0011445617749 0.00031630439732 -0.0044384037048 0.00093255619464 0.00038441542544
          -0.0041429158383 0.0010574807352 0.00045895018891 -0.0037966125543 0.001084308203 0.00052914674032
          -0.0034073331763 0.0010266590681 0.00058186924917 -0.0029808568407 0.00091490206023 0.00065789167101
          -0.0025482896847 0.00079418266576 0.000737150604 -0.00212421694 0.00066898904315 0.00080167720657
          -0.0016995746258 0.00052964394959 0.00085036735482 -0.0012797506365 0.00038391546558 0.00089273381109
          -0.0008573972475 0.0002430294874 0.00091730528085 -0.00042823242661 0.00012225418308 0.00093072837233
          -1.1102230246e-16 4.2782313248e-09 0.0009340265713 0.00042823242661 -0.0001222472848 0.00093072904303
          0.00085739724749 -0.00024303480854 0.00091730882325 0.0012797506365 -0.00038390501328 0.00089273693315
          0.0016995746258 -0.00052962927216 0.00085037561035 0.00212421694 -0.00066898694957 0.00080168174965
          0.0025482896847 -0.00079418755625 0.00073715716856 0.0029808568407 -0.00091489574274 0.0006578988296
          0.0034073331763 -0.0010266558628 0.00058187447403 0.0037966125543 -0.0010843078386 0.00052915317778
          0.0041429158383 -0.0010574814839 0.00045895529456 0.0044384037048 -0.00093256018482 0.00038441899012
          0.0046916435859 -0.0011445681631 0.00031630701454 -0.004785768068 0.00098081472945 0.00028743096585
          -0.0045410804753 0.0011162783938 0.00042590996888 -0.0042386470293 0.0010185140579 0.00044103402195
          -0.0038940429795 0.0010870029745 0.00054095979798 -0.0034961678189 0.0010492341443 0.00059145359521
          -0.0030540759811 0.00093605162974 0.00066865437094 -0.0026156198956 0.00080284790137 0.00074006370548
          -0.002182054964 0.0006638925512 0.0008040469164 -0.0017435026571 0.00051929329549 0.00085312910576
          -0.0013112357525 0.0003744379415 0.00089309272269 -0.0008781508707 0.00023436177704 0.00091815558792
          -0.00044052004443 0.00011375576488 0.00093440803021 -1.2212453271e-15 -1.0078138324e-09 0.00094035816694
          0.00044052004442 -0.0001137495621 0.00093440592069 0.0008781508707 -0.00023436687441 0.00091815817846
          0.0013112357525 -0.00037442064535 0.00089309558759 0.0017435026571 -0.00051928019624 0.00085313675935
          0.002182054964 -0.00066388697211 0.00080404909326 0.0026156198956 -0.00080284717237 0.00074006539262
          0.0030540759811 -0.00093605186678 0.00066865550964 0.0034961678189 -0.0010492294476 0.00059145554819
          0.0038940429795 -0.0010870037263 0.00054096071722 0.0042386470293 -0.0010185176478 0.00044103479193
          0.0045410804753 -0.0011162868719 0.00042591106023 0.004785768068 -0.0009808276563 0.00028743165843
          -0.0048667606997 0.0010199070999 0.00022758124345 -0.0046264364162 0.0011663621989 0.00043579913885
          -0.0043277150743 0.0010664069483 0.00048092183386 -0.0039831968805 0.0011261608157 0.00053753368101
          -0.0035848788922 0.0010736005373 0.00058822068638 -0.0031340650698 0.00095305904155 0.00066991470698
          -0.0026820537603 0.00081208725072 0.00073973521147 -0.0022284494638 0.0006636105635 0.00080531014061
          -0.0017839330762 0.00051858474608 0.00085585331781 -0.001345553061 0.00037017518965 0.00089640673461
          -0.00090237723686 0.00023211915081 0.00092542118629 -0.00044807315671 0.00011674326845 0.00094439606026
          -1.2212453271e-15 -2.3984630948e-09 0.00094723422885 0.00044807315671 -0.00011674497339 0.00094439758741
          0.00090237723686 -0.00023210999658 0.00092542327029 0.001345553061 -0.0003701788534 0.00089640734641
          0.0017839330762 -0.00051857892486 0.00085585427037 0.0022284494638 -0.00066360604808 0.00080530991673
          0.0026820537603 -0.0008120919163 0.0007397347442 0.0031340650698 -0.00095305464101 0.00066991423342
          0.0035848788922 -0.0010735997969 0.00058821999813 0.0039831968805 -0.0011261612494 0.00053753259163
          0.0043277150743 -0.0010664091149 0.00048092062798 0.0046264364162 -0.001166367608 0.00043579745916
          0.0048667606997 -0.0010199172952 0.00022757942193 -0.0049546077178 0.0012734823233 0.00033939655382
          -0.0047117499968 0.0010935216049 0.00043668725119 -0.0044138390928 0.001210489315 0.00043103520347
          -0.0040688672148 0.0011419837127 0.00053000090274 -0.0036660672632 0.0010997881648 0.00058551649319
          -0.0032062364235 0.00097658419775 0.00067006729379 -0.0027445698351 0.00082428406193 0.00073544749638
          -0.0022868319606 0.00066947194493 0.0007986460212 -0.0018300486322 0.00052125938409 0.00084879251627
          -0.0013725776577 0.00037233050008 0.00089146858663 -0.00092580055518 0.00023737357629 0.0009300506543
          -0.00045999498747 0.00011876886287 0.00095089713798 -8.881784197e-16 3.9651155692e-09 0.000958479411
          0.00045999498747 -0.00011877348429 0.00095089693777 0.00092580055518 -0.00023736743556 0.00093005260758
          0.0013725776577 -0.00037232489379 0.00089146807656 0.0018300486322 -0.00052126154388 0.00084879145954
          0.0022868319606 -0.00066947251388 0.00079864443306 0.0027445698351 -0.00082428090268 0.00073544507322
          0.0032062364235 -0.0009765807526 0.00067006401637 0.0036660672632 -0.0010997876678 0.0005855135091
          0.0040688672148 -0.001141984261 0.00052999681971 0.0044138390928 -0.0012104904444 0.00043103180153
          0.0047117499968 -0.0010935241738 0.00043668399033 0.0049546077178 -0.0012734838945 0.00033939403972
          -0.005044352294 0.0013424594504 0.00023486197961 -0.0048026334311 0.0011615285267 0.00041780952611
          -0.0044956578669 0.0011036292889 0.00044862716095 -0.0041448545654 0.001176850502 0.00050860998512
          -0.0037338621874 0.0011214499231 0.0005731769644 -0.0032686511999 0.00098505408374 0.00065542608329
          -0.0028016949723 0.0008321706972 0.00072098158536 -0.0023353620702 0.00067673364572 0.00078707064664
          -0.0018711475082 0.00053501431865 0.00084555760125 -0.0014050597947 0.00038712822353 0.00088649259691
          -0.0009455401422 0.00024727151576 0.00092943018755 -0.00046669297085 0.00012557027864 0.00095146116122
          -7.7715611724e-16 5.3421531643e-09 0.00095955041304 0.00046669297085 -0.0001255638218 0.00095146140169
          0.0009455401422 -0.00024726554129 0.00092943193887 0.0014050597947 -0.00038712080994 0.00088649213625
          0.0018711475082 -0.00053501193348 0.00084555685705 0.0023353620702 -0.00067673188214 0.00078706964271
          0.0028016949723 -0.00083217804302 0.0007209790764 0.0032686511999 -0.00098505226699 0.00065542110247
          0.0037338621874 -0.0011214542501 0.00057317274551 0.0041448545654 -0.0011768538561 0.00050860448307
          0.0044956578669 -0.0011036284962 0.000448623028 0.0048026334311 -0.0011615251426 0.00041780690862
          0.005044352294 -0.0013424529117 0.00023486072145 -0.0051543042369 0.0012350669948 0.00030139361157
          -0.0048897022859 0.0010936972482 0.00038650146202 -0.004589577158 0.001240717762 0.00046424825835
          -0.004226265271 0.001181375509 0.00048747170572 -0.0038081102311 0.0011412418348 0.00055696231726
          -0.0033407371166 0.00100000583 0.00064167408215 -0.0028611370274 0.00084645971915 0.00071224836951
          -0.0023911620908 0.00069115083825 0.00078386675304 -0.0019107685092 0.00055198592767 0.00084138591592
          -0.0014317226572 0.0004071296344 0.00089116634962 -0.00096226497331 0.00025966133716 0.0009400763642
          -0.00047961352151 0.00012847334588 0.00096506256619 -2.2204460493e-16 -1.7222491211e-09 0.0009702283207
          0.00047961352151 -0.00012846902929 0.00096506413335 0.00096226497331 -0.00025965994947 0.00094007805657
          0.0014317226572 -0.00040712595544 0.00089116698796 0.0019107685092 -0.00055199045583 0.00084138660575
          0.0023911620908 -0.00069115752525 0.0007838670598 0.0028611370274 -0.00084646470333 0.00071224930778
          0.0033407371166 -0.0010000098695 0.00064167408215 0.0038081102311 -0.0011412438626 0.00055696066447
          0.004226265271 -0.0011813747396 0.00048747170572 0.004589577158 -0.0012407145101 0.00046424825835
          0.0048897022859 -0.0010936886643 0.00038650146202 0.0051543042369 -0.001235055379 0.00030139361157
          -0.0052732131767 0.0013100389974 0.00015869045137 -0.0049991734838 0.0011587004626 0.0003407950181
          -0.0046924189582 0.0012840901202 0.00038761750737 -0.0043178017927 0.0012108646573 0.00049404962437
          -0.0038876119368 0.0011587283947 0.00054291976196 -0.0034075159135 0.0010161975989 0.00062823276276
          -0.0029195384493 0.00087108041652 0.00070342676476 -0.0024355461687 0.00072247545058 0.00078043435472
          -0.0019445579611 0.00058681472494 0.00084813484384 -0.0014631696539 0.00043784588841 0.00088966807718
          -0.00098065276352 0.00028063690938 0.00094073626227 -0.00048623449385 0.00013863181607 0.0009687518336
          -4.4408920985e-16 5.2773438952e-09 0.00097571138113 0.00048623449385 -0.00013861270098 0.00096874977799
          0.00098065276352 -0.0002806449687 0.00094073601634 0.0014631696539 -0.00043783991467 0.00088966646566
          0.0019445579611 -0.00058680961123 0.00084813398499 0.0024355461687 -0.0007224789864 0.00078043570822
          0.0029195384493 -0.00087108644765 0.00070342804751 0.0034075159135 -0.0010162024068 0.00062823418286
          0.0038876119368 -0.0011587344683 0.00054291799354 0.0043178017927 -0.0012108622729 0.0004940509776
          0.0046924189582 -0.0012840852304 0.00038761878813 0.0049991734838 -0.0011586948708 0.00034079665596
          0.0052732131767 -0.0013100324587 0.00015869170953 -0.0053959647131 0.0012090195143 0.0001779648406
          -0.0051190887074 0.0010900382688 0.00027949049735 -0.0048005968663 0.0012550778137 0.00039005121596
          -0.0044144974214 0.0012002648869 0.00047451451436 -0.0039644183294 0.0011696626376 0.0005343869025
          -0.0034683551023 0.0010275288115 0.00062311498394 -0.002968070201 0.00089256849744 0.00070439078556
          -0.0024738439906 0.00074591442589 0.00077854261316 -0.0019789860132 0.00060958799095 0.00084213663094
          -0.0014928369883 0.00046189348158 0.00088444118292 -0.00099832491639 0.00030222274998 0.00093727356008
          -0.00049995498309 0.00014340274967 0.0009631842981 -2.2204460493e-16 -2.2123144428e-09 0.00096889731426
          0.00049995498309 -0.00014339508411 0.00096318105302 0.00099832491639 -0.00030222354991 0.00093727029407
          0.0014928369883 -0.00046189331557 0.0008844382346 0.0019789860132 -0.00060958965582 0.00084213412267
          0.0024738439906 -0.00074591776428 0.00077854168155 0.002968070201 -0.0008925763172 0.00070438918663
          0.0034683551023 -0.0010275381137 0.00062311370835 0.0039644183294 -0.0011696643842 0.00053438569178
          0.0044144974214 -0.0012002618024 0.00047451414062 0.0048005968663 -0.0012550725873 0.00039005129936
          0.0051190887074 -0.0010900334923 0.00027949131354 0.0053959647131 -0.0012090179432 0.00017796642979
          -0.0055153832399 0.0012917265687 0.00018017609476 -0.0052251118818 0.0011553799713 0.00034568246981
          -0.0048940631458 0.0012931324853 0.00038812395691 -0.0044907050107 0.0012242980776 0.00048881523248
          -0.0040399358404 0.0011863952384 0.000538003251 -0.0035311215242 0.0010527052179 0.00062989857411
          -0.0030287812918 0.00091776789443 0.00070901675817 -0.0025213383935 0.00077057758676 0.00078208151385
          -0.0020236287005 0.00063000244514 0.00084439316746 -0.0015165751192 0.00048198966203 0.00088308270142
          -0.0010084864917 0.0003184079687 0.00092839724375 -0.00050544027727 0.00015442795065 0.00095560964208
          -5.5511151231e-16 -2.5884013821e-09 0.0009615017983 0.00050544027727 -0.00015444361845 0.00095560916861
          0.0010084864917 -0.0003184022324 0.0009283892257 0.0015165751192 -0.00048199124667 0.00088307675036
          0.0020236287005 -0.0006300026753 0.00084438610725 0.0025213383935 -0.00077058081325 0.0007820768852
          0.0030287812918 -0.00091776885964 0.00070901406066 0.0035311215242 -0.0010527126226 0.00062989636654
          0.0040399358404 -0.0011863955752 0.00053800072757 0.0044907050107 -0.0012242949755 0.00048881446721
          0.0048940631458 -0.0012931275968 0.00038812342011 0.0052251118818 -0.001155375089 0.00034568211097
          0.0055153832399 -0.0012917263087 0.00018017586464 -0.005639412004 0.001192577527 0.00015410634479
          -0.005332998355 0.0010883881736 0.00040221311586 -0.0049870215902 0.0012681426357 0.00038509145033
          -0.0045756559257 0.0012250995568 0.0004789802394 -0.0041083312851 0.0011991594968 0.00054564087367
          -0.0035983540229 0.0010702321173 0.00063362187803 -0.0030878250068 0.00093935519422 0.00071401486735
          -0.0025703926558 0.00079059411572 0.00078339578683 -0.002055859186 0.000646245385 0.00084157404918
          -0.001540550632 0.00048887027024 0.00088454223724 -0.0010174676721 0.00032378089559 0.00092548501224
          -0.00050676955008 0.00015542479136 0.00094532418821 -5.5511151231e-16 7.2425754283e-10 0.00094764303606
          0.00050676955008 -0.00015541219482 0.00094532083907 0.0010174676721 -0.00032379618874 0.00092547999182
          0.001540550632 -0.00048887218595 0.00088453919004 0.002055859186 -0.00064623722545 0.00084156436755
          0.0025703926558 -0.00079059341141 0.00078338967231 0.0030878250068 -0.0009393565477 0.00071400918142
          0.0035983540229 -0.0010702326096 0.00063361655996 0.0041083312851 -0.0011991541975 0.00054563746597
          0.0045756559257 -0.0012250981938 0.00047897707562 0.0049870215902 -0.0012681353166 0.00038508881836
          0.005332998355 -0.0010883828993 0.00040221094635 0.005639412004 -0.0011925758052 0.00015410452327
          -0.0057494355675 0.0012720769762 0.00029924869189 -0.0054358067797 0.0011610041705 0.00030305131578
          -0.005077150974 0.0013236599924 0.00045690105319 -0.0046495591934 0.0012535469557 0.00049368644006
          -0.0041737232196 0.0012192440268 0.00055509471335 -0.0036606891545 0.0010885431082 0.00064351891002
          -0.003142489119 0.00095873787906 0.00071675145919 -0.0026171280221 0.00080697025149 0.00078864432731
          -0.0020946900323 0.00065638170385 0.00084653450103 -0.0015708907995 0.00049150584524 0.00088420875355
          -0.0010381607715 0.00032767305952 0.00091903396755 -0.00052120880586 0.00016042277253 0.0009336157369
          -8.881784197e-16 -1.9988263267e-09 0.00093773089532 0.00052120880586 -0.00016042161063 0.00093361449273
          0.0010381607715 -0.00032768093036 0.00091902907762 0.0015708907995 -0.00049151094648 0.00088420279788
          0.0020946900323 -0.00065638137186 0.00084652636167 0.0026171280221 -0.00080697532757 0.0007886373796
          0.003142489119 -0.00095873919872 0.00071674564548 0.0036606891545 -0.001088540808 0.0006435137927
          0.0041737232196 -0.0012192398431 0.00055509392691 0.0046495591934 -0.0012535431018 0.00049368388757
          0.005077150974 -0.001323651514 0.00045689872484 0.0054358067797 -0.00116099081 0.00030304877258
          0.0057494355675 -0.0012720637893 0.00029924663803 -0.0058337313711 0.0011729980567 0.00024820531747
          -0.005519414156 0.0013862397161 0.00034220174999 -0.0051628011323 0.0013052366393 0.00044464453315
          -0.004730000038 0.0012621206382 0.00050727874664 -0.0042470297765 0.0012348316385 0.00055832809734
          -0.0037315624028 0.0011090318132 0.00064824586983 -0.0032014019488 0.00097345603896 0.000726994613
          -0.0026656526374 0.00081464761208 0.00079401457146 -0.0021366169552 0.00066083456579 0.00084759015356
          -0.0016042463406 0.00049087043448 0.0008847347905 -0.0010634917382 0.00031725002942 0.00091993593895
          -0.0005332364753 0.00015989634411 0.0009330828177 -7.7715611724e-16 -2.5477112642e-09 0.0009370368317
          0.00053323647529 -0.00015991352174 0.00093308023444 0.0010634917382 -0.00031725867734 0.00091993512101
          0.0016042463406 -0.00049087207049 0.00088473369952 0.0021366169552 -0.00066083731245 0.00084758714943
          0.0026656526374 -0.00081465242187 0.00079401297365 0.0032014019488 -0.00097345560268 0.00072699375836
          0.0037315624028 -0.0011090252084 0.00064824592036 0.0042470297765 -0.0012348206577 0.00055832901372
          0.004730000038 -0.0012621174844 0.00050728031964 0.0051628011323 -0.0013052284976 0.00044464549734
          0.005519414156 -0.0013862255404 0.00034220183914 0.0058337313711 -0.0011729799022 0.00024820452399
          -0.0059256873089 0.0012433335449 0.00017561419392 -0.0056147427187 0.0011745864654 0.00036170157755
          -0.0052559473159 0.0013623217319 0.00041921566905 -0.0048222431233 0.0012978067138 0.00048928271707
          -0.0043303899393 0.001260405096 0.00056245606948 -0.0037992685321 0.0011274775741 0.00065057139912
          -0.0032591853823 0.00098015342801 0.00073019922075 -0.0027117985188 0.00082265392198 0.00079692226459
          -0.002172447373 0.00066340881522 0.00085044255317 -0.0016233405607 0.00048792998275 0.00088850329325
          -0.0010730973407 0.00031459288432 0.00092216344226 -0.00054421224026 0.00015629775364 0.00094280330057
          -8.881784197e-16 -2.7989986995e-09 0.00094820697709 0.00054421224026 -0.00015630710911 0.00094280188176
          0.0010730973407 -0.00031460045136 0.00092216757265 0.0016233405607 -0.00048793428422 0.00088850339395
          0.002172447373 -0.00066340522915 0.00085044406824 0.0027117985188 -0.00082265646073 0.00079692393301
          0.0032591853823 -0.0009801546988 0.00073020147124 0.0037992685321 -0.0011274687211 0.00065057343309
          0.0043303899393 -0.0012603998965 0.00056245840641 0.0048222431233 -0.0012978000111 0.00048928457172
          0.0052559473159 -0.0013623140009 0.00041921741172 0.0056147427187 -0.0011745763856 0.00036170361608
          0.0059256873089 -0.0012433204674 0.00017561624557 -0.0060352644539 0.0015011618147 0.0002576434221
          -0.0057195095452 0.001384135678 0.00036279179727 -0.0053586590733 0.0013375908709 0.00045986864093
          -0.0049136158428 0.0013078888902 0.00048740419425 -0.0044194903554 0.0012867049904 0.0005657977436
          -0.003874039921 0.0011487790728 0.00065392169455 -0.0033207693746 0.00099451929123 0.00073562574393
          -0.0027609012115 0.00082949952017 0.00080314830435 -0.0022094096375 0.00066358674874 0.00085577628958
          -0.0016519370333 0.00049087013486 0.00089788131051 -0.0010918232553 0.00032110042866 0.00092538279517
          -0.00054522961877 0.00016285970837 0.000953284417 -5.5511151231e-16 -3.7650699225e-09 0.00095916395583
          0.00054522961877 -0.00016286362399 0.00095328492984 0.0010918232553 -0.0003211103776 0.00092538903866
          0.0016519370333 -0.00049087601758 0.00089788286696 0.0022094096375 -0.00066357613291 0.00085578302262
          0.0027609012115 -0.00082949870813 0.00080315182221 0.0033207693746 -0.00099451307565 0.00073563018654
          0.003874039921 -0.0011487740588 0.00065392741784 0.0044194903554 -0.0012867004031 0.00056580477468
          0.0049136158428 -0.0013078874207 0.00048740932256 0.0053586590732 -0.0013375872822 0.00045987285728
          0.0057195095452 -0.0013841279094 0.00036279523096 0.0060352644539 -0.0015011551665 0.00025764626945
          -0.0061626472516 0.001542308066 0.00032357503953 -0.0058333541513 0.001429194907 0.00034842609954
          -0.0054666017986 0.0013755981136 0.00041545442367 -0.0050134888891 0.0013399416728 0.00049091108976
          -0.0045007150242 0.0013091069736 0.00056350986135 -0.0039358313018 0.0011585115779 0.00065282642858
          -0.0033744208872 0.0010001744527 0.00073448468474 -0.0028063512984 0.00083874643897 0.00080101110461
          -0.0022419603066 0.00067011485166 0.00085943502074 -0.0016772907123 0.00049924042156 0.00090376135155
          -0.001109676461 0.00032976488983 0.00093626830662 -0.00055845333789 0.00016471518465 0.00096049903996
          -7.7715611724e-16 -1.0473207857e-09 0.00097254967433 0.00055845333789 -0.00016470347417 0.00096049991839
          0.001109676461 -0.00032978325697 0.00093627557369 0.0016772907123 -0.00049924519707 0.00090376794223
          0.0022419603066 -0.00067009915289 0.00085944366616 0.0028063512984 -0.00083874305283 0.00080101778542
          0.0033744208872 -0.0010001654705 0.000734491587 0.0039358313018 -0.0011585094352 0.00065283441195
          0.0045007150242 -0.0013091006953 0.00056351973135 0.0050134888891 -0.0013399413083 0.00049091805492
          0.0054666017986 -0.0013755988622 0.0004154596791 0.0058333541513 -0.0014291988971 0.00034842958054
          0.0061626472516 -0.0015423144542 0.00032357653003 -0.0062824308145 0.0013754197605 0.00016576369386
          -0.0059572284715 0.0013191864209 0.00030319242953 -0.0055753411528 0.001330925917 0.0004377578233
          -0.0051133219367 0.0014049478742 0.00048728217275 -0.0045884088435 0.0013239316943 0.00056517558734
          -0.0040126244133 0.0011704957758 0.0006560504812 -0.0034278719308 0.0010096508296 0.00073825015204
          -0.0028461555533 0.00084883052377 0.00080722294415 -0.0022721850571 0.00068240365194 0.00086684724793
          -0.0017052014236 0.00051138472721 0.00091216225695 -0.0011305775079 0.00033525072377 0.00094159699996
          -0.00056818557072 0.00016603918799 0.00096442194364 -7.7715611724e-16 2.3865922572e-09 0.0009717016978
          0.00056818557072 -0.0001660375424 0.00096442534227 0.0011305775079 -0.00033524346423 0.00094160139104
          0.0017052014236 -0.00051137680252 0.000912166378 0.0022721850571 -0.00068238925315 0.00086685478875
          0.0028461555533 -0.00084882854277 0.00080722646782 0.0034278719308 -0.0010096404642 0.00073825473662
          0.0040126244133 -0.0011704856004 0.00065605746528 0.0045884088435 -0.0013239212221 0.00056518427482
          0.0051133219367 -0.001404954382 0.0004872878521 0.0055753411528 -0.001330933266 0.00043776174909
          0.0059572284715 -0.0013191972124 0.00030319412685 0.0062824308145 -0.0013754313763 0.0001657641541
          -0.0064001337764 0.0013566049072 0.0001593900705 -0.0060589727409 0.0013192198308 0.00038578465398
          -0.0056694625086 0.001351091157 0.00044487770685 -0.005200168819 0.0014307641056 0.00050796655075
          -0.0046569747111 0.0013463001212 0.00056395025343 -0.0040652530064 0.0011851956452 0.00065904536685
          -0.0034711488175 0.0010184237447 0.00074256596404 -0.0028821214279 0.00086530270311 0.00080670217073
          -0.002303160688 0.00069702105226 0.00086168185013 -0.0017325975522 0.0005291813834 0.00090792062626
          -0.0011554737476 0.00034670574713 0.0009370225081 -0.00058182067012 0.00017066518686 0.0009636284615
          -7.7715611724e-16 -3.5629413864e-09 0.00097342521641 0.00058182067012 -0.0001706698214 0.00096363018206
          0.0011554737476 -0.00034669204691 0.00093702659217 0.0017325975522 -0.00052918914739 0.00090792324544
          0.002303160688 -0.000697021147 0.00086168510566 0.0028821214279 -0.00086530239372 0.00080670394574
          0.0034711488175 -0.0010184183573 0.00074256709934 0.0040652530064 -0.0011851857765 0.00065904527847
          0.0046569747111 -0.0013462967713 0.00056395259262 0.005200168819 -0.0014307677989 0.00050796696858
          0.0056694625086 -0.0013510983497 0.00044487801492 0.0060589727409 -0.0013192299543 0.00038578534465
          0.0064001337764 -0.0013566147388 0.0001593899696 -0.0064974192696 0.0014791741064 0.00013540372098
          -0.0061489421032 0.0014437023985 0.00030839600988 -0.0057464029119 0.0014472678867 0.00044656119958
          -0.0052746805371 0.0014251946227 0.00049244164476 -0.0047219865971 0.001377070585 0.00055838883884
          -0.0041142661959 0.0012054882291 0.00065629886217 -0.003514695082 0.0010386077276 0.00073726530061
          -0.0029235488146 0.0008864942244 0.00080300692832 -0.0023371107839 0.00071988835254 0.00085617601713
          -0.0017526618459 0.00055184630506 0.00089699551112 -0.0011743271052 0.00036728396233 0.00093372980967
          -0.00059079721199 0.00017516234192 0.00096121665587 -1.1102230246e-15 5.1722928163e-09 0.00097111570216
          0.00059079721199 -0.00017515676527 0.00096121867125 0.0011743271052 -0.00036730307847 0.00093372960388
          0.0017526618459 -0.00055185623576 0.00089699686658 0.0023371107839 -0.00071988887099 0.00085617866216
          0.0029235488146 -0.00088649087422 0.0008030068663 0.003514695082 -0.0010386032606 0.00073726466758
          0.0041142661959 -0.0012054886342 0.00065629752589 0.0047219865971 -0.0013770654507 0.00055838727168
          0.0052746805371 -0.0014251985316 0.00049244046166 0.0057464029119 -0.0014472762715 0.00044656035471
          0.0061489421032 -0.0014437153208 0.00030839496037 0.0064974192696 -0.0014791880676 0.00013540359177
          -0.0065872875774 0.0013890368894 0.00028999697298 -0.0062390371461 0.0013854321285 0.00037256216902
          -0.0058311298757 0.0014261160599 0.00045063429385 -0.0053509583383 0.0014965550016 0.00048663177472
          -0.0047944411806 0.0014023916534 0.00056592474552 -0.0041838840009 0.0012336094408 0.0006578691534
          -0.0035810776373 0.001059285089 0.00074469679017 -0.0029807420173 0.00090101665723 0.00080278733665
          -0.002385448505 0.00074015747357 0.00085136585476 -0.0017902816507 0.00057054833807 0.00089288021136
          -0.0011974438195 0.00038544727359 0.00092552584355 -0.00059795269133 0.00019416914495 0.00095217760129
          -8.881784197e-16 -1.6298909999e-09 0.00096593382307 0.00059795269133 -0.0001941810385 0.00095217711938
          0.0011974438195 -0.00038543203151 0.00092552663536 0.0017902816507 -0.000570554798 0.00089288043087
          0.002385448505 -0.00074016326589 0.00085136628157 0.0029807420173 -0.0009010165148 0.00080278583934
          0.0035810776373 -0.0010592828776 0.00074469396196 0.0041838840009 -0.0012336028492 0.00065786501384
          0.0047944411806 -0.0014023903773 0.00056592097312 0.0053509583383 -0.0014965591474 0.00048662747193
          0.0058311298757 -0.0014261242212 0.00045063120848 0.0062390371461 -0.0013854418311 0.00037256045686
          0.0065872875774 -0.001389044225 0.00028999651052 -0.0066824290265 0.0014558339126 0.00023129435186
          -0.0063256057718 0.0014598832283 0.0002671730977 -0.005907294323 0.001493294191 0.00044246300184
          -0.005420485093 0.0014898108375 0.00050148504985 -0.0048646758859 0.0014414489348 0.00056495007755
          -0.0042494506215 0.0012728958784 0.00065467254453 -0.0036512925687 0.001082046981 0.00074157839779
          -0.0030480105124 0.00091219993662 0.00080243541524 -0.0024391176233 0.00074191576821 0.00085378145199
          -0.0018275005836 0.00058018113009 0.00089101371291 -0.0012189504801 0.00038736976273 0.00092057908316
          -0.00060542673082 0.00020047022039 0.00094265339904 -1.1102230246e-15 1.8235810639e-09 0.00095031870143
          0.00060542673082 -0.00020046408748 0.00094265236753 0.0012189504801 -0.00038737875789 0.00092057568741
          0.0018275005836 -0.00058018074711 0.00089101404131 0.0024391176233 -0.00074191348709 0.00085378253889
          0.0030480105124 -0.00091219979907 0.00080243525617 0.0036512925687 -0.0010820410672 0.00074157775835
          0.0042494506215 -0.0012728902357 0.00065467181043 0.0048646758859 -0.0014414432649 0.00056494738594
          0.005420485093 -0.0014898111304 0.00050148411444 0.005907294323 -0.0014933009916 0.00044246202914
          0.0063256057718 -0.0014598900917 0.00026717215052 0.0066824290265 -0.001455841075 0.00023129299279
          -0.0067736545478 0.0016474451912 0.00016407290662 -0.0064001791942 0.0016306876569 0.00031232109939
          -0.0059812164658 0.0016059533992 0.00043807457755 -0.0054930100824 0.001554449704 0.00048844038356
          -0.0049365643603 0.0014788596016 0.00055952337328 -0.0043217706458 0.0013028049769 0.00065477702796
          -0.003712263561 0.0011109932025 0.00073752859073 -0.0031036601993 0.0009314995146 0.00080242657646
          -0.0024830966602 0.00075617905073 0.00085279508503 -0.0018571626239 0.00058102153852 0.00089100997929
          -0.0012393283981 0.00039945647945 0.00091742245761 -0.00061919148832 0.00020378063892 0.00093514963525
          -7.7715611724e-16 -7.3932338029e-10 0.00093836512373 0.00061919148831 -0.00020377204679 0.0009351518092
          0.0012393283981 -0.00039945369501 0.00091742174417 0.0018571626239 -0.00058103115789 0.00089101174286
          0.0024830966602 -0.00075618906257 0.00085279664221 0.0031036601993 -0.00093150156765 0.00080242803903
          0.003712263561 -0.0011109948096 0.00073752970461 0.0043217706458 -0.0013028001932 0.00065477774703
          0.0049365643603 -0.0014788618282 0.00055951993424 0.0054930100824 -0.0015544504273 0.0004884391843
          0.0059812164658 -0.0016059543283 0.00043807352996 0.0064001791942 -0.0016306901637 0.00031232019405
          0.0067736545478 -0.0016474448276 0.00016407211092 -0.0068745090542 0.0016213278608 0.00028256515074
          -0.0064961577335 0.0016310915006 0.0003453987211 -0.0060731541699 0.0016293996061 0.0004340135529
          -0.0055754647227 0.0015850260576 0.00050728199862 -0.0050209158079 0.0015112008693 0.00056474065564
          -0.0043942249031 0.0013262565103 0.00065861453252 -0.0037741502238 0.0011331288596 0.0007381400197
          -0.0031483624296 0.00094318213871 0.00080224676979 -0.0025128481674 0.00076006268432 0.00085149094448
          -0.0018798888888 0.0005808932831 0.00088876778865 -0.0012509454469 0.00039946687031 0.00091437331921
          -0.00062432244895 0.00020016048917 0.00092879960975 -7.7715611724e-16 -8.9308960227e-10 0.00093017788418
          0.00062432244895 -0.00020016298826 0.00092880131863 0.0012509454469 -0.00039944816823 0.00091437058885
          0.0018798888888 -0.00058089958398 0.00088876873775 0.0025128481674 -0.00076007457347 0.00085149310149
          0.0031483624296 -0.00094317975913 0.00080224703761 0.0037741502238 -0.0011331321216 0.00073813890958
          0.0043942249031 -0.0013262561718 0.00065861133533 0.0050209158079 -0.0015111995264 0.00056473682875
          0.0055754647227 -0.0015850261126 0.00050727682068 0.0060731541699 -0.0016293995125 0.00043401008903
          0.0064961577335 -0.0016310910624 0.00034539742446 0.0068745090542 -0.0016213286351 0.00028256548398
          -0.0069787252648 0.0017490092331 0.00017871162824 -0.0066001479836 0.0014479242666 0.00035977780347
          -0.0061717833388 0.0015566630317 0.00040929253982 -0.0056746111789 0.0015864924546 0.00051295357733
          -0.0051085728379 0.0015446216018 0.00056276067187 -0.004480787754 0.0013515422209 0.00065466629689
          -0.0038443289696 0.0011458054929 0.00073744932326 -0.0032034337802 0.00094995497391 0.00080421543647
          -0.0025528981833 0.0007590125865 0.00085854063995 -0.0019034470603 0.00058095333628 0.000896491276
          -0.0012645668449 0.00038588851131 0.00092214399749 -0.00062915185513 0.00019196118812 0.00093486829766
          -8.881784197e-16 -3.2528868488e-11 0.00094233399707 0.00062915185513 -0.0001919640677 0.00093486670462
          0.0012645668449 -0.0003858863091 0.00092214096032 0.0019034470603 -0.00058095657492 0.00089648999186
          0.0025528981833 -0.00075902309153 0.00085854218024 0.0032034337802 -0.0009499617484 0.00080421483938
          0.0038443289696 -0.0011457993083 0.00073744873514 0.004480787754 -0.0013515419716 0.00065466539653
          0.0051085728379 -0.001544622878 0.00056275840503 0.0056746111789 -0.0015864918514 0.00051295239424
          0.0061717833388 -0.0015566619959 0.00040929169496 0.0066001479836 -0.0014479221359 0.00035977675396
          0.0069787252648 -0.0017490068877 0.00017871149903 -0.0070796320519 0.0016110157169 0.00024698755956
          -0.0067044290461 0.0016575098087 0.00036489868787 -0.0062654307679 0.0016943555134 0.00045978969107
          -0.0057654863353 0.0016599423711 0.00048882790393 -0.0051866777164 0.001572321226 0.00055714373902
          -0.0045451095609 0.001374698316 0.00064730820459 -0.0039038653 0.0011746203334 0.00073451797088
          -0.0032536469907 0.00097184587264 0.00080520209217 -0.002590080995 0.00077571704852 0.00085745998142
          -0.0019274707523 0.00058594500452 0.00089483966065 -0.0012823851819 0.00039092892551 0.00092579982525
          -0.0006369608243 0.00019061608359 0.0009374625036 -7.7715611724e-16 7.4166850439e-10 0.00094307689032
          0.0006369608243 -0.00019061509206 0.00093746089243 0.0012823851819 -0.00039092010663 0.00092579890369
          0.0019274707523 -0.00058594834201 0.00089483852206 0.002590080995 -0.00077573032304 0.00085745959643
          0.0032536469907 -0.00097184853619 0.000805202806 0.0039038653 -0.0011746215361 0.00073451758634
          0.0045451095609 -0.0013747037279 0.00064730734354 0.0051866777164 -0.0015723238064 0.00055714278251
          0.0057654863353 -0.0016599416104 0.00048882712249 0.0062654307679 -0.0016943543398 0.00045978895155
          0.0067044290461 -0.0016575078459 0.0003648984732 0.0070796320519 -0.0016110139951 0.00024698666296
          -0.0071850945978 0.0016236324131 0.00029790418855 -0.0068142408872 0.0016805982931 0.00035251682168
          -0.0063691519847 0.0017211157134 0.00042800399627 -0.0058570923516 0.0016807717116 0.00049941591278
          -0.0052674643724 0.0015883384859 0.00056064543379 -0.0046159140763 0.0013909263013 0.00065270924929
          -0.0039577483099 0.0011863573006 0.00073903986979 -0.0032965349965 0.00098855067916 0.00080952004104
          -0.0026360295594 0.00078909556787 0.0008667925821 -0.0019640454473 0.00059367916795 0.00090106231824
          -0.0013087925563 0.00039564433461 0.00092254672443 -0.00065229616402 0.00019451342297 0.00093149313076
          -5.5511151231e-16 -4.631837025e-09 0.00093547341722 0.00065229616402 -0.00019452972859 0.00093149170105
          0.0013087925563 -0.00039562359174 0.00092254693031 0.0019640454473 -0.00059368102088 0.00090106127664
          0.0026360295594 -0.0007890995752 0.00086679244956 0.0032965349965 -0.00098855527703 0.00080951946447
          0.0039577483099 -0.0011863523388 0.00073904069577 0.0046159140763 -0.00139092875 0.00065271007209
          0.0052674643724 -0.0015883443436 0.00056064607335 0.0058570923516 -0.0016807695397 0.0004994175532
          0.0063691519847 -0.0017211108677 0.00042800491157 0.0068142408872 -0.0016805920953 0.000352516765
          0.0071850945978 -0.001623626025 0.00029790362297 -0.0072988313565 0.0017862280571 0.00031136164494
          -0.0069134160923 0.0015206675122 0.00030995588 -0.0064625962996 0.0016361486079 0.00045686121502
          -0.0059389015806 0.0016537192313 0.00050068655228 -0.0053372637418 0.0015993887641 0.00055698725768
          -0.0046646911954 0.0014015621567 0.00064873069778 -0.0040092010974 0.0011899837619 0.00073122590199
          -0.0033417139129 0.0010025936996 0.00080522160421 -0.0026754408001 0.00080621820576 0.00086304053827
          -0.0020081668167 0.00060880654085 0.0008962084327 -0.0013380976517 0.00040479758988 0.00092292652006
          -0.00066698364915 0.00020408396082 0.00093120050935 -7.7715611724e-16 -5.4816375883e-09 0.00093257430693
          0.00066698364914 -0.00020409083975 0.00093120093622 0.0013380976517 -0.00040480032344 0.00092292525212
          0.0020081668167 -0.00060880745958 0.00089620647992 0.0026754408001 -0.00080621704693 0.00086303936889
          0.0033417139129 -0.0010025945958 0.00080522131322 0.0040092010974 -0.0011899814962 0.0007312262908
          0.0046646911954 -0.0014015637424 0.00064873141242 0.0053372637418 -0.0015993933398 0.00055698953545
          0.0059389015806 -0.0016537183276 0.00050068698628 0.0064625962996 -0.0016361458107 0.00045686172581
          0.0069134160923 -0.0015206624182 0.0003099564265 0.0072988313565 -0.001786221669 0.00031136221052
          -0.0073577569817 0.0016895737526 0.00033519450965 -0.0069843460188 0.0017509065303 0.00042112833943
          -0.0065376946484 0.0016128198475 0.00049795894904 -0.006004886939 0.0017153691539 0.00051616486213
          -0.0054024244047 0.0016132946009 0.00057956264009 -0.0047264283124 0.0014159564773 0.00066809842725
          -0.004059659171 0.0012065189275 0.00075353162445 -0.0033908617778 0.0010169104428 0.00082532278416
          -0.0027124012174 0.00082307841652 0.00088289724026 -0.0020363260916 0.00061774806046 0.00092450903251
          -0.0013542009653 0.00041157564334 0.00094769781418 -0.00067750687975 0.00021040676992 0.00095443086942
          -6.6613381478e-16 -5.5354897333e-09 0.00095682600166 0.00067750687974 -0.00021040664096 0.00095443155067
          0.0013542009653 -0.00041158973128 0.00094769718558 0.0020363260916 -0.00061774136125 0.00092450716255
          0.0027124012174 -0.00082307183395 0.00088289365208 0.0033908617778 -0.0010169068376 0.0008253226702
          0.004059659171 -0.001206519091 0.00075353352007 0.0047264283124 -0.0014159543749 0.00066810085725
          0.0054024244047 -0.0016132918772 0.00057956770402 0.006004886939 -0.0017153670075 0.00051616795693
          0.0065376946484 -0.0016128218519 0.0004979614202 0.0069843460188 -0.0017509082401 0.00042112982619
          0.0073577569817 -0.0016895736019 0.0003351959285 -0.0073705093004 0.0017872491828 0.00045418738373
          -0.006981723312 0.0018180791752 0.00048363603276 -0.0065371337845 0.0016385081726 0.00058353226927
          -0.0060290288843 0.0016658321744 0.00065703715497 -0.005449931647 0.0016262966543 0.00070239624328
          -0.0048068760074 0.001425436097 0.00080211819732 -0.0041051153696 0.0012117196954 0.00087446325975
          -0.0034176613575 0.0010225512783 0.00094486624229 -0.0027346022966 0.00082703979759 0.0010023911867
          -0.0020571150167 0.00062378353905 0.0010530128721 -0.0013689495887 0.000418574417 0.0010637841499
          -0.00069047425181 0.00021346105521 0.0010893303643 -4.4408920985e-16 7.4473427425e-10 0.001085975781
          0.00069047425181 -0.00021344537466 0.0010893265333 0.0013689495887 -0.00041857732276 0.001063781312
          0.0020571150167 -0.00062378191472 0.0010530109943 0.0027346022966 -0.00082703415323 0.0010023945227
          0.0034176613575 -0.0010225466219 0.00094486768779 0.0041051153696 -0.0012117127555 0.00087446465215
          0.0048068760074 -0.0014254358749 0.00080212104814 0.005449931647 -0.0016262971632 0.00070240122892
          0.0060290288843 -0.0016658373209 0.00065704111558 0.0065371337845 -0.0016385118454 0.00058353536357
          0.006981723312 -0.0018180830172 0.00048363902724 0.0073705093004 -0.0017872522867 0.00045418893439
          -0.0073989346072 0.002056816125 0.00052007784513 -0.0070836332748 0.0017537561315 0.00069944517607
          -0.0065849035178 0.0017613682662 0.00069436103408 -0.0061994876748 0.0017151172032 0.00078472368179
          -0.0055939626686 0.0016342622702 0.00085289314055 -0.0047769386062 0.0014382639066 0.00089847299976
          -0.0041444291906 0.0012203130253 0.0010353735329 -0.0035467199751 0.0010273079324 0.0011042923977
          -0.0027926946785 0.00082996398618 0.0011640620007 -0.0020573129917 0.00062402791945 0.0011474853511
          -0.0014818475277 0.00042193606138 0.0012113006742 -0.0007451798829 0.00020880121939 0.0011947823006
          -3.3306690739e-16 -5.3168209835e-09 0.0011877728586 0.0007451798829 -0.00020880340694 0.001194786615
          0.0014818475277 -0.0004219385193 0.0012112987443 0.0020573129916 -0.00062403059205 0.0011474856869
          0.0027926946785 -0.00082995515005 0.0011640605767 0.0035467199751 -0.0010273007274 0.0011042935417
          0.0041444291906 -0.0012203092527 0.001035378007 0.0047769386062 -0.0014382628909 0.0008984803292
          0.0055939626686 -0.001634260142 0.00085290031556 0.0061994876748 -0.0017151191989 0.00078473048303
          0.0065849035178 -0.001761372937 0.00069436602407 0.0070836332748 -0.0017537639707 0.00069944826014
          0.0073989346072 -0.0020568262468 0.00052007938561 -0.007631786261 0.0021307579418 0.00072500238276
          -0.0073149481305 0.0020681141585 0.0007174598744 -0.0066891418722 0.0017913272495 0.00077769111447
          -0.0062813080427 0.0017241245626 0.00085419087104 -0.0055597179317 0.0016475836888 0.00081064468371
          -0.004833358983 0.0014478105337 0.00097287341601 -0.0041405511429 0.0012409274028 0.0010068474116
          -0.0035011474271 0.0010346485259 0.0010661688092 -0.0028969767287 0.00083963628663 0.0011320478053
          -0.0020204028491 0.00063522845572 0.0012095844012 -0.0014435500365 0.00043092762953 0.0013032151629
          -0.00086657728844 0.00021041823143 0.0012649015211 -1.1102230246e-16 3.9205285685e-09 0.0012511319815
          0.00086657728844 -0.00021042642135 0.0012648995172 0.0014435500365 -0.00043093335089 0.001303215831
          0.0020204028491 -0.00063524089482 0.0012095838963 0.0028969767287 -0.00083962516524 0.0011320473552
          0.0035011474271 -0.0010346365927 0.0010661682124 0.0041405511429 -0.0012409218591 0.001006848587
          0.004833358983 -0.0014478128012 0.00097287448121 0.0055597179317 -0.0016475834318 0.00081064845429
          0.0062813080427 -0.0017241290834 0.00085419290358 0.0066891418722 -0.0017913366671 0.00077769309194
          0.0073149481305 -0.0020681282646 0.00071746155655 0.007631786261 -0.0021307715082 0.00072500516742
          -0.0077559362137 0.0022986532778 0.00064166205261 -0.0073167861799 0.0021735560833 0.0005524551889
          -0.0068132723578 0.0020022366672 0.00052552695635 -0.0062913227167 0.0017810061645 0.00076456694571
          -0.0057661885696 0.0016646773982 0.00069875517695 -0.004896429171 0.0014682898766 0.00087723274402
          -0.0044649128301 0.0012618588736 0.00089892320839 -0.0037153971108 0.0010504387695 0.0011405980329
          -0.0030099141224 0.00084362182143 0.0012089766492 -0.0023401810083 0.0006335363017 0.0011098697455
          -0.0013018547825 0.00042640193307 0.0012324537305 -0.00064112167473 0.00020766992778 0.0011819222416
          -1.1102230246e-16 -3.5684539768e-09 0.0011671938788 0.00064112167473 -0.00020767501377 0.0011819351054
          0.0013018547825 -0.00042642225485 0.0012324317398 0.0023401810083 -0.00063354669125 0.0011098715813
          0.0030099141224 -0.00084361035102 0.0012089333679 0.0037153971108 -0.0010504302546 0.0011405965899
          0.0044649128301 -0.0012618489135 0.0008989201686 0.004896429171 -0.00146828905 0.00087722730022
          0.0057661885696 -0.0016646642488 0.00069884180647 0.0062913227167 -0.0017810131038 0.0007645629702
          0.0068132723578 -0.002002251063 0.00052552510286 0.0073167861799 -0.002173575929 0.00055245687043
          0.0077559362137 -0.0022986757374 0.00064166692303
        </DataArray>
      </PointData>
      <CellData>
      </CellData>
      <Points>
        <DataArray type="Float64" Name="Points" NumberOfComponents="3" format="ascii" RangeMin="0.5" RangeMax="75.460254439">
          0.5 -12 0 0.5 -11 0
          0.5 -10 0 0.5 -9 0
          0.5 -8 0 0.5 -7 0
          0.5 -6 0 0.5 -5 0
          0.5 -4 0 0.5 -3 0
          0.5 -2 0 0.5 -1 0
          0.5 0 0 0.5 1 0
          0.5 2 0 0.5 3 0
          0.5 4 0 0.5 5 0
          0.5 6 0 0.5 7 0
          0.5 8 0 0.5 9 0
          0.5 10 0 0.5 11 0
          0.5 12 0 1.5 -12 0
          1.5 -11 0 1.5 -10 0
          1.5 -9 0 1.5 -8 0
          1.5 -7 0 1.5 -6 0
          1.5 -5 0 1.5 -4 0
          1.5 -3 0 1.5 -2 0
          1.5 -1 0 1.5 0 0
          1.5 1 0 1.5 2 0
          1.5 3 0 1.5 4 0
          1.5 5 0 1.5 6 0
          1.5 7 0 1.5 8 0
          1.5 9 0 1.5 10 0
          1.5 11 0 1.5 12 0
          2.5 -12 0 2.5 -11 0
          2.5 -10 0 2.5 -9 0
          2.5 -8 0 2.5 -7 0
          2.5 -6 0 2.5 -5 0
          2.5 -4 0 2.5 -3 0
          2.5 -2 0 2.5 -1 0
          2.5 0 0 2.5 1 0
          2.5 2 0 2.5 3 0
          2.5 4 0 2.5 5 0
          2.5 6 0 2.5 7 0
          2.5 8 0 2.5 9 0
          2.5 10 0 2.5 11 0
          2.5 12 0 3.5 -12 0
          3.5 -11 0 3.5 -10 0
          3.5 -9 0 3.5 -8 0
          3.5 -7 0 3.5 -6 0
          3.5 -5 0 3.5 -4 0
          3.5 -3 0 3.5 -2 0
          3.5 -1 0 3.5 0 0
          3.5 1 0 3.5 2 0
          3.5 3 0 3.5 4 0
          3.5 5 0 3.5 6 0
          3.5 7 0 3.5 8 0
          3.5 9 0 3.5 10 0
          3.5 11 0 3.5 12 0
          4.5 -12 0 4.5 -11 0
          4.5 -10 0 4.5 -9 0
          4.5 -8 0 4.5 -7 0
          4.5 -6 0 4.5 -5 0
          4.5 -4 0 4.5 -3 0
          4.5 -2 0 4.5 -1 0
          4.5 0 0 4.5 1 0
          4.5 2 0 4.5 3 0
          4.5 4 0 4.5 5 0
          4.5 6 0 4.5 7 0
          4.5 8 0 4.5 9 0
          4.5 10 0 4.5 11 0
          4.5 12 0 5.5 -12 0
          5.5 -11 0 5.5 -10 0
          5.5 -9 0 5.5 -8 0
          5.5 -7 0 5.5 -6 0
          5.5 -5 0 5.5 -4 0
          5.5 -3 0 5.5 -2 0
          5.5 -1 0 5.5 0 0
          5.5 1 0 5.5 2 0
          5.5 3 0 5.5 4 0
          5.5 5 0 5.5 6 0
          5.5 7 0 5.5 8 0
          5.5 9 0 5.5 10 0
          5.5 11 0 5.5 12 0
          6.5 -12 0 6.5 -11 0
          6.5 -10 0 6.5 -9 0
          6.5 -8 0 6.5 -7 0
          6.5 -6 0 6.5 -5 0
          6.5 -4 0 6.5 -3 0
          6.5 -2 0 6.5 -1 0
          6.5 0 0 6.5 1 0
          6.5 2 0 6.5 3 0
          6.5 4 0 6.5 5 0
          6.5 6 0 6.5 7 0
          6.5 8 0 6.5 9 0
          6.5 10 0 6.5 11 0
          6.5 12 0 7.5 -12 0
          7.5 -11 0 7.5 -10 0
          7.5 -9 0 7.5 -8 0
          7.5 -7 0 7.5 -6 0
          7.5 -5 0 7.5 -4 0
          7.5 -3 0 7.5 -2 0
          7.5 -1 0 7.5 0 0
          7.5 1 0 7.5 2 0
          7.5 3 0 7.5 4 0
          7.5 5 0 7.5 6 0
          7.5 7 0 7.5 8 0
          7.5 9 0 7.5 10 0
          7.5 11 0 7.5 12 0
          8.5 -12 0 8.5 -11 0
          8.5 -10 0 8.5 -9 0
          8.5 -8 0 8.5 -7 0
          8.5 -6 0 8.5 -5 0
          8.5 -4 0 8.5 -3 0
          8.5 -2 0 8.5 -1 0
          8.5 0 0 8.5 1 0
          8.5 2 0 8.5 3 0
          8.5 4 0 8.5 5 0
          8.5 6 0 8.5 7 0
          8.5 8 0 8.5 9 0
          8.5 10 0 8.5 11 0
          8.5 12 0 9.5 -12 0
          9.5 -11 0 9.5 -10 0
          9.5 -9 0 9.5 -8 0
          9.5 -7 0 9.5 -6 0
          9.5 -5 0 9.5 -4 0
          9.5 -3 0 9.5 -2 0
          9.5 -1 0 9.5 0 0
          9.5 1 0 9.5 2 0
          9.5 3 0 9.5 4 0
          9.5 5 0 9.5 6 0
          9.5 7 0 9.5 8 0
          9.5 9 0 9.5 10 0
          9.5 11 0 9.5 12 0
          10.5 -12 0 10.5 -11 0
          10.5 -10 0 10.5 -9 0
          10.5 -8 0 10.5 -7 0
          10.5 -6 0 10.5 -5 0
          10.5 -4 0 10.5 -3 0
          10.5 -2 0 10.5 -1 0
          10.5 0 0 10.5 1 0
          10.5 2 0 10.5 3 0
          10.5 4 0 10.5 5 0
          10.5 6 0 10.5 7 0
          10.5 8 0 10.5 9 0
          10.5 10 0 10.5 11 0
          10.5 12 0 11.5 -12 0
          11.5 -11 0 11.5 -10 0
          11.5 -9 0 11.5 -8 0
          11.5 -7 0 11.5 -6 0
          11.5 -5 0 11.5 -4 0
          11.5 -3 0 11.5 -2 0
          11.5 -1 0 11.5 0 0
          11.5 1 0 11.5 2 0
          11.5 3 0 11.5 4 0
          11.5 5 0 11.5 6 0
          11.5 7 0 11.5 8 0
          11.5 9 0 11.5 10 0
          11.5 11 0 11.5 12 0
          12.5 -12 0 12.5 -11 0
          12.5 -10 0 12.5 -9 0
          12.5 -8 0 12.5 -7 0
          12.5 -6 0 12.5 -5 0
          12.5 -4 0 12.5 -3 0
          12.5 -2 0 12.5 -1 0
          12.5 0 0 12.5 1 0
          12.5 2 0 12.5 3 0
          12.5 4 0 12.5 5 0
          12.5 6 0 12.5 7 0
          12.5 8 0 12.5 9 0
          12.5 10 0 12.5 11 0
          12.5 12 0 13.5 -12 0
          13.5 -11 0 13.5 -10 0
          13.5 -9 0 13.5 -8 0
          13.5 -7 0 13.5 -6 0
          13.5 -5 0 13.5 -4 0
          13.5 -3 0 13.5 -2 0
          13.5 -1 0 13.5 0 0
          13.5 1 0 13.5 2 0
          13.5 3 0 13.5 4 0
          13.5 5 0 13.5 6 0
          13.5 7 0 13.5 8 0
          13.5 9 0 13.5 10 0
          13.5 11 0 13.5 12 0
          14.5 -12 0 14.5 -11 0
          14.5 -10 0 14.5 -9 0
          14.5 -8 0 14.5 -7 0
          14.5 -6 0 14.5 -5 0
          14.5 -4 0 14.5 -3 0
          14.5 -2 0 14.5 -1 0
          14.5 0 0 14.5 1 0
          14.5 2 0 14.5 3 0
          14.5 4 0 14.5 5 0
          14.5 6 0 14.5 7 0
          14.5 8 0 14.5 9 0
          14.5 10 0 14.5 11 0
          14.5 12 0 15.5 -12 0
          15.5 -11 0 15.5 -10 0
          15.5 -9 0 15.5 -8 0
          15.5 -7 0 15.5 -6 0
          15.5 -5 0 15.5 -4 0
          15.5 -3 0 15.5 -2 0
          15.5 -1 0 15.5 0 0
          15.5 1 0 15.5 2 0
          15.5 3 0 15.5 4 0
          15.5 5 0 15.5 6 0
          15.5 7 0 15.5 8 0
          15.5 9 0 15.5 10 0
          15.5 11 0 15.5 12 0
          16.5 -12 0 16.5 -11 0
          16.5 -10 0 16.5 -9 0
          16.5 -8 0 16.5 -7 0
          16.5 -6 0 16.5 -5 0
          16.5 -4 0 16.5 -3 0
          16.5 -2 0 16.5 -1 0
          16.5 0 0 16.5 1 0
          16.5 2 0 16.5 3 0
          16.5 4 0 16.5 5 0
          16.5 6 0 16.5 7 0
          16.5 8 0 16.5 9 0
          16.5 10 0 16.5 11 0
          16.5 12 0 17.5 -12 0
          17.5 -11 0 17.5 -10 0
          17.5 -9 0 17.5 -8 0
          17.5 -7 0 17.5 -6 0
          17.5 -5 0 17.5 -4 0
          17.5 -3 0 17.5 -2 0
          17.5 -1 0 17.5 0 0
          17.5 1 0 17.5 2 0
          17.5 3 0 17.5 4 0
          17.5 5 0 17.5 6 0
          17.5 7 0 17.5 8 0
          17.5 9 0 17.5 10 0
          17.5 11 0 17.5 12 0
          18.5 -12 0 18.5 -11 0
          18.5 -10 0 18.5 -9 0
          18.5 -8 0 18.5 -7 0
          18.5 -6 0 18.5 -5 0
          18.5 -4 0 18.5 -3 0
          18.5 -2 0 18.5 -1 0
          18.5 0 0 18.5 1 0
          18.5 2 0 18.5 3 0
          18.5 4 0 18.5 5 0
          18.5 6 0 18.5 7 0
          18.5 8 0 18.5 9 0
          18.5 10 0 18.5 11 0
          18.5 12 0 19.5 -12 0
          19.5 -11 0 19.5 -10 0
          19.5 -9 0 19.5 -8 0
          19.5 -7 0 19.5 -6 0
          19.5 -5 0 19.5 -4 0
          19.5 -3 0 19.5 -2 0
          19.5 -1 0 19.5 0 0
          19.5 1 0 19.5 2 0
          19.5 3 0 19.5 4 0
          19.5 5 0 19.5 6 0
          19.5 7 0 19.5 8 0
          19.5 9 0 19.5 10 0
          19.5 11 0 19.5 12 0
          20.5 -12 0 20.5 -11 0
          20.5 -10 0 20.5 -9 0
          20.5 -8 0 20.5 -7 0
          20.5 -6 0 20.5 -5 0
          20.5 -4 0 20.5 -3 0
          20.5 -2 0 20.5 -1 0
          20.5 0 0 20.5 1 0
          20.5 2 0 20.5 3 0
          20.5 4 0 20.5 5 0
          20.5 6 0 20.5 7 0
          20.5 8 0 20.5 9 0
          20.5 10 0 20.5 11 0
          20.5 12 0 21.5 -12 0
          21.5 -11 0 21.5 -10 0
          21.5 -9 0 21.5 -8 0
          21.5 -7 0 21.5 -6 0
          21.5 -5 0 21.5 -4 0
          21.5 -3 0 21.5 -2 0
          21.5 -1 0 21.5 0 0
          21.5 1 0 21.5 2 0
          21.5 3 0 21.5 4 0
          21.5 5 0 21.5 6 0
          21.5 7 0 21.5 8 0
          21.5 9 0 21.5 10 0
          21.5 11 0 21.5 12 0
          22.5 -12 0 22.5 -11 0
          22.5 -10 0 22.5 -9 0
          22.5 -8 0 22.5 -7 0
          22.5 -6 0 22.5 -5 0
          22.5 -4 0 22.5 -3 0
          22.5 -2 0 22.5 -1 0
          22.5 0 0 22.5 1 0
          22.5 2 0 22.5 3 0
          22.5 4 0 22.5 5 0
          22.5 6 0 22.5 7 0
          22.5 8 0 22.5 9 0
          22.5 10 0 22.5 11 0
          22.5 12 0 23.5 -12 0
          23.5 -11 0 23.5 -10 0
          23.5 -9 0 23.5 -8 0
          23.5 -7 0 23.5 -6 0
          23.5 -5 0 23.5 -4 0
          23.5 -3 0 23.5 -2 0
          23.5 -1 0 23.5 0 0
          23.5 1 0 23.5 2 0
          23.5 3 0 23.5 4 0
          23.5 5 0 23.5 6 0
          23.5 7 0 23.5 8 0
          23.5 9 0 23.5 10 0
          23.5 11 0 23.5 12 0
          24.5 -12 0 24.5 -11 0
          24.5 -10 0 24.5 -9 0
          24.5 -8 0 24.5 -7 0
          24.5 -6 0 24.5 -5 0
          24.5 -4 0 24.5 -3 0
          24.5 -2 0 24.5 -1 0
          24.5 0 0 24.5 1 0
          24.5 2 0 24.5 3 0
          24.5 4 0 24.5 5 0
          24.5 6 0 24.5 7 0
          24.5 8 0 24.5 9 0
          24.5 10 0 24.5 11 0
          24.5 12 0 25.5 -12 0
          25.5 -11 0 25.5 -10 0
          25.5 -9 0 25.5 -8 0
          25.5 -7 0 25.5 -6 0
          25.5 -5 0 25.5 -4 0
          25.5 -3 0 25.5 -2 0
          25.5 -1 0 25.5 0 0
          25.5 1 0 25.5 2 0
          25.5 3 0 25.5 4 0
          25.5 5 0 25.5 6 0
          25.5 7 0 25.5 8 0
          25.5 9 0 25.5 10 0
          25.5 11 0 25.5 12 0
          26.5 -12 0 26.5 -11 0
          26.5 -10 0 26.5 -9 0
          26.5 -8 0 26.5 -7 0
          26.5 -6 0 26.5 -5 0
          26.5 -4 0 26.5 -3 0
          26.5 -2 0 26.5 -1 0
          26.5 0 0 26.5 1 0
          26.5 2 0 26.5 3 0
          26.5 4 0 26.5 5 0
          26.5 6 0 26.5 7 0
          26.5 8 0 26.5 9 0
          26.5 10 0 26.5 11 0
          26.5 12 0 27.5 -12 0
          27.5 -11 0 27.5 -10 0
          27.5 -9 0 27.5 -8 0
          27.5 -7 0 27.5 -6 0
          27.5 -5 0 27.5 -4 0
          27.5 -3 0 27.5 -2 0
          27.5 -1 0 27.5 0 0
          27.5 1 0 27.5 2 0
          27.5 3 0 27.5 4 0
          27.5 5 0 27.5 6 0
          27.5 7 0 27.5 8 0
          27.5 9 0 27.5 10 0
          27.5 11 0 27.5 12 0
          28.5 -12 0 28.5 -11 0
          28.5 -10 0 28.5 -9 0
          28.5 -8 0 28.5 -7 0
          28.5 -6 0 28.5 -5 0
          28.5 -4 0 28.5 -3 0
          28.5 -2 0 28.5 -1 0
          28.5 0 0 28.5 1 0
          28.5 2 0 28.5 3 0
          28.5 4 0 28.5 5 0
          28.5 6 0 28.5 7 0
          28.5 8 0 28.5 9 0
          28.5 10 0 28.5 11 0
          28.5 12 0 29.5 -12 0
          29.5 -11 0 29.5 -10 0
          29.5 -9 0 29.5 -8 0
          29.5 -7 0 29.5 -6 0
          29.5 -5 0 29.5 -4 0
          29.5 -3 0 29.5 -2 0
          29.5 -1 0 29.5 0 0
          29.5 1 0 29.5 2 0
          29.5 3 0 29.5 4 0
          29.5 5 0 29.5 6 0
          29.5 7 0 29.5 8 0
          29.5 9 0 29.5 10 0
          29.5 11 0 29.5 12 0
          30.5 -12 0 30.5 -11 0
          30.5 -10 0 30.5 -9 0
          30.5 -8 0 30.5 -7 0
          30.5 -6 0 30.5 -5 0
          30.5 -4 0 30.5 -3 0
          30.5 -2 0 30.5 -1 0
          30.5 0 0 30.5 1 0
          30.5 2 0 30.5 3 0
          30.5 4 0 30.5 5 0
          30.5 6 0 30.5 7 0
          30.5 8 0 30.5 9 0
          30.5 10 0 30.5 11 0
          30.5 12 0 31.5 -12 0
          31.5 -11 0 31.5 -10 0
          31.5 -9 0 31.5 -8 0
          31.5 -7 0 31.5 -6 0
          31.5 -5 0 31.5 -4 0
          31.5 -3 0 31.5 -2 0
          31.5 -1 0 31.5 0 0
          31.5 1 0 31.5 2 0
          31.5 3 0 31.5 4 0
          31.5 5 0 31.5 6 0
          31.5 7 0 31.5 8 0
          31.5 9 0 31.5 10 0
          31.5 11 0 31.5 12 0
          32.5 -12 0 32.5 -11 0
          32.5 -10 0 32.5 -9 0
          32.5 -8 0 32.5 -7 0
          32.5 -6 0 32.5 -5 0
          32.5 -4 0 32.5 -3 0
          32.5 -2 0 32.5 -1 0
          32.5 0 0 32.5 1 0
          32.5 2 0 32.5 3 0
          32.5 4 0 32.5 5 0
          32.5 6 0 32.5 7 0
          32.5 8 0 32.5 9 0
          32.5 10 0 32.5 11 0
          32.5 12 0 33.5 -12 0
          33.5 -11 0 33.5 -10 0
          33.5 -9 0 33.5 -8 0
          33.5 -7 0 33.5 -6 0
          33.5 -5 0 33.5 -4 0
          33.5 -3 0 33.5 -2 0
          33.5 -1 0 33.5 0 0
          33.5 1 0 33.5 2 0
          33.5 3 0 33.5 4 0
          33.5 5 0 33.5 6 0
          33.5 7 0 33.5 8 0
          33.5 9 0 33.5 10 0
          33.5 11 0 33.5 12 0
          34.5 -12 0 34.5 -11 0
          34.5 -10 0 34.5 -9 0
          34.5 -8 0 34.5 -7 0
          34.5 -6 0 34.5 -5 0
          34.5 -4 0 34.5 -3 0
          34.5 -2 0 34.5 -1 0
          34.5 0 0 34.5 1 0
          34.5 2 0 34.5 3 0
          34.5 4 0 34.5 5 0
          34.5 6 0 34.5 7 0
          34.5 8 0 34.5 9 0
          34.5 10 0 34.5 11 0
          34.5 12 0 35.5 -12 0
          35.5 -11 0 35.5 -10 0
          35.5 -9 0 35.5 -8 0
          35.5 -7 0 35.5 -6 0
          35.5 -5 0 35.5 -4 0
          35.5 -3 0 35.5 -2 0
          35.5 -1 0 35.5 0 0
          35.5 1 0 35.5 2 0
          35.5 3 0 35.5 4 0
          35.5 5 0 35.5 6 0
          35.5 7 0 35.5 8 0
          35.5 9 0 35.5 10 0
          35.5 11 0 35.5 12 0
          36.5 -12 0 36.5 -11 0
          36.5 -10 0 36.5 -9 0
          36.5 -8 0 36.5 -7 0
          36.5 -6 0 36.5 -5 0
          36.5 -4 0 36.5 -3 0
          36.5 -2 0 36.5 -1 0
          36.5 0 0 36.5 1 0
          36.5 2 0 36.5 3 0
          36.5 4 0 36.5 5 0
          36.5 6 0 36.5 7 0
          36.5 8 0 36.5 9 0
          36.5 10 0 36.5 11 0
          36.5 12 0 37.5 -12 0
          37.5 -11 0 37.5 -10 0
          37.5 -9 0 37.5 -8 0
          37.5 -7 0 37.5 -6 0
          37.5 -5 0 37.5 -4 0
          37.5 -3 0 37.5 -2 0
          37.5 -1 0 37.5 0 0
          37.5 1 0 37.5 2 0
          37.5 3 0 37.5 4 0
          37.5 5 0 37.5 6 0
          37.5 7 0 37.5 8 0
          37.5 9 0 37.5 10 0
          37.5 11 0 37.5 12 0
          38.5 -12 0 38.5 -11 0
          38.5 -10 0 38.5 -9 0
          38.5 -8 0 38.5 -7 0
          38.5 -6 0 38.5 -5 0
          38.5 -4 0 38.5 -3 0
          38.5 -2 0 38.5 -1 0
          38.5 0 0 38.5 1 0
          38.5 2 0 38.5 3 0
          38.5 4 0 38.5 5 0
          38.5 6 0 38.5 7 0
          38.5 8 0 38.5 9 0
          38.5 10 0 38.5 11 0
          38.5 12 0 39.5 -12 0
          39.5 -11 0 39.5 -10 0
          39.5 -9 0 39.5 -8 0
          39.5 -7 0 39.5 -6 0
          39.5 -5 0 39.5 -4 0
          39.5 -3 0 39.5 -2 0
          39.5 -1 0 39.5 0 0
          39.5 1 0 39.5 2 0
          39.5 3 0 39.5 4 0
          39.5 5 0 39.5 6 0
          39.5 7 0 39.5 8 0
          39.5 9 0 39.5 10 0
          39.5 11 0 39.5 12 0
          40.5 -12 0 40.5 -11 0
          40.5 -10 0 40.5 -9 0
          40.5 -8 0 40.5 -7 0
          40.5 -6 0 40.5 -5 0
          40.5 -4 0 40.5 -3 0
          40.5 -2 0 40.5 -1 0
          40.5 0 0 40.5 1 0
          40.5 2 0 40.5 3 0
          40.5 4 0 40.5 5 0
          40.5 6 0 40.5 7 0
          40.5 8 0 40.5 9 0
          40.5 10 0 40.5 11 0
          40.5 12 0 41.5 -12 0
          41.5 -11 0 41.5 -10 0
          41.5 -9 0 41.5 -8 0
          41.5 -7 0 41.5 -6 0
          41.5 -5 0 41.5 -4 0
          41.5 -3 0 41.5 -2 0
          41.5 -1 0 41.5 0 0
          41.5 1 0 41.5 2 0
          41.5 3 0 41.5 4 0
          41.5 5 0 41.5 6 0
          41.5 7 0 41.5 8 0
          41.5 9 0 41.5 10 0
          41.5 11 0 41.5 12 0
          42.5 -12 0 42.5 -11 0
          42.5 -10 0 42.5 -9 0
          42.5 -8 0 42.5 -7 0
          42.5 -6 0 42.5 -5 0
          42.5 -4 0 42.5 -3 0
          42.5 -2 0 42.5 -1 0
          42.5 0 0 42.5 1 0
          42.5 2 0 42.5 3 0
          42.5 4 0 42.5 5 0
          42.5 6 0 42.5 7 0
          42.5 8 0 42.5 9 0
          42.5 10 0 42.5 11 0
          42.5 12 0 43.5 -12 0
          43.5 -11 0 43.5 -10 0
          43.5 -9 0 43.5 -8 0
          43.5 -7 0 43.5 -6 0
          43.5 -5 0 43.5 -4 0
          43.5 -3 0 43.5 -2 0
          43.5 -1 0 43.5 0 0
          43.5 1 0 43.5 2 0
          43.5 3 0 43.5 4 0
          43.5 5 0 43.5 6 0
          43.5 7 0 43.5 8 0
          43.5 9 0 43.5 10 0
          43.5 11 0 43.5 12 0
          44.5 -12 0 44.5 -11 0
          44.5 -10 0 44.5 -9 0
          44.5 -8 0 44.5 -7 0
          44.5 -6 0 44.5 -5 0
          44.5 -4 0 44.5 -3 0
          44.5 -2 0 44.5 -1 0
          44.5 0 0 44.5 1 0
          44.5 2 0 44.5 3 0
          44.5 4 0 44.5 5 0
          44.5 6 0 44.5 7 0
          44.5 8 0 44.5 9 0
          44.5 10 0 44.5 11 0
          44.5 12 0 45.5 -12 0
          45.5 -11 0 45.5 -10 0
          45.5 -9 0 45.5 -8 0
          45.5 -7 0 45.5 -6 0
          45.5 -5 0 45.5 -4 0
          45.5 -3 0 45.5 -2 0
          45.5 -1 0 45.5 0 0
          45.5 1 0 45.5 2 0
          45.5 3 0 45.5 4 0
          45.5 5 0 45.5 6 0
          45.5 7 0 45.5 8 0
          45.5 9 0 45.5 10 0
          45.5 11 0 45.5 12 0
          46.5 -12 0 46.5 -11 0
          46.5 -10 0 46.5 -9 0
          46.5 -8 0 46.5 -7 0
          46.5 -6 0 46.5 -5 0
          46.5 -4 0 46.5 -3 0
          46.5 -2 0 46.5 -1 0
          46.5 0 0 46.5 1 0
          46.5 2 0 46.5 3 0
          46.5 4 0 46.5 5 0
          46.5 6 0 46.5 7 0
          46.5 8 0 46.5 9 0
          46.5 10 0 46.5 11 0
          46.5 12 0 47.5 -12 0
          47.5 -11 0 47.5 -10 0
          47.5 -9 0 47.5 -8 0
          47.5 -7 0 47.5 -6 0
          47.5 -5 0 47.5 -4 0
          47.5 -3 0 47.5 -2 0
          47.5 -1 0 47.5 0 0
          47.5 1 0 47.5 2 0
          47.5 3 0 47.5 4 0
          47.5 5 0 47.5 6 0
          47.5 7 0 47.5 8 0
          47.5 9 0 47.5 10 0
          47.5 11 0 47.5 12 0
          48.5 -12 0 48.5 -11 0
          48.5 -10 0 48.5 -9 0
          48.5 -8 0 48.5 -7 0
          48.5 -6 0 48.5 -5 0
          48.5 -4 0 48.5 -3 0
          48.5 -2 0 48.5 -1 0
          48.5 0 0 48.5 1 0
          48.5 2 0 48.5 3 0
          48.5 4 0 48.5 5 0
          48.5 6 0 48.5 7 0
          48.5 8 0 48.5 9 0
          48.5 10 0 48.5 11 0
          48.5 12 0 49.5 -12 0
          49.5 -11 0 49.5 -10 0
          49.5 -9 0 49.5 -8 0
          49.5 -7 0 49.5 -6 0
          49.5 -5 0 49.5 -4 0
          49.5 -3 0 49.5 -2 0
          49.5 -1 0 49.5 0 0
          49.5 1 0 49.5 2 0
          49.5 3 0 49.5 4 0
          49.5 5 0 49.5 6 0
          49.5 7 0 49.5 8 0
          49.5 9 0 49.5 10 0
          49.5 11 0 49.5 12 0
          50.5 -12 0 50.5 -11 0
          50.5 -10 0 50.5 -9 0
          50.5 -8 0 50.5 -7 0
          50.5 -6 0 50.5 -5 0
          50.5 -4 0 50.5 -3 0
          50.5 -2 0 50.5 -1 0
          50.5 0 0 50.5 1 0
          50.5 2 0 50.5 3 0
          50.5 4 0 50.5 5 0
          50.5 6 0 50.5 7 0
          50.5 8 0 50.5 9 0
          50.5 10 0 50.5 11 0
          50.5 12 0 51.5 -12 0
          51.5 -11 0 51.5 -10 0
          51.5 -9 0 51.5 -8 0
          51.5 -7 0 51.5 -6 0
          51.5 -5 0 51.5 -4 0
          51.5 -3 0 51.5 -2 0
          51.5 -1 0 51.5 0 0
          51.5 1 0 51.5 2 0
          51.5 3 0 51.5 4 0
          51.5 5 0 51.5 6 0
          51.5 7 0 51.5 8 0
          51.5 9 0 51.5 10 0
          51.5 11 0 51.5 12 0
          52.5 -12 0 52.5 -11 0
          52.5 -10 0 52.5 -9 0
          52.5 -8 0 52.5 -7 0
          52.5 -6 0 52.5 -5 0
          52.5 -4 0 52.5 -3 0
          52.5 -2 0 52.5 -1 0
          52.5 0 0 52.5 1 0
          52.5 2 0 52.5 3 0
          52.5 4 0 52.5 5 0
          52.5 6 0 52.5 7 0
          52.5 8 0 52.5 9 0
          52.5 10 0 52.5 11 0
          52.5 12 0 53.5 -12 0
          53.5 -11 0 53.5 -10 0
          53.5 -9 0 53.5 -8 0
          53.5 -7 0 53.5 -6 0
          53.5 -5 0 53.5 -4 0
          53.5 -3 0 53.5 -2 0
          53.5 -1 0 53.5 0 0
          53.5 1 0 53.5 2 0
          53.5 3 0 53.5 4 0
          53.5 5 0 53.5 6 0
          53.5 7 0 53.5 8 0
          53.5 9 0 53.5 10 0
          53.5 11 0 53.5 12 0
          54.5 -12 0 54.5 -11 0
          54.5 -10 0 54.5 -9 0
          54.5 -8 0 54.5 -7 0
          54.5 -6 0 54.5 -5 0
          54.5 -4 0 54.5 -3 0
          54.5 -2 0 54.5 -1 0
          54.5 0 0 54.5 1 0
          54.5 2 0 54.5 3 0
          54.5 4 0 54.5 5 0
          54.5 6 0 54.5 7 0
          54.5 8 0 54.5 9 0
          54.5 10 0 54.5 11 0
          54.5 12 0 55.5 -12 0
          55.5 -11 0 55.5 -10 0
          55.5 -9 0 55.5 -8 0
          55.5 -7 0 55.5 -6 0
          55.5 -5 0 55.5 -4 0
          55.5 -3 0 55.5 -2 0
          55.5 -1 0 55.5 0 0
          55.5 1 0 55.5 2 0
          55.5 3 0 55.5 4 0
          55.5 5 0 55.5 6 0
          55.5 7 0 55.5 8 0
          55.5 9 0 55.5 10 0
          55.5 11 0 55.5 12 0
          56.5 -12 0 56.5 -11 0
          56.5 -10 0 56.5 -9 0
          56.5 -8 0 56.5 -7 0
          56.5 -6 0 56.5 -5 0
          56.5 -4 0 56.5 -3 0
          56.5 -2 0 56.5 -1 0
          56.5 0 0 56.5 1 0
          56.5 2 0 56.5 3 0
          56.5 4 0 56.5 5 0
          56.5 6 0 56.5 7 0
          56.5 8 0 56.5 9 0
          56.5 10 0 56.5 11 0
          56.5 12 0 57.5 -12 0
          57.5 -11 0 57.5 -10 0
          57.5 -9 0 57.5 -8 0
          57.5 -7 0 57.5 -6 0
          57.5 -5 0 57.5 -4 0
          57.5 -3 0 57.5 -2 0
          57.5 -1 0 57.5 0 0
          57.5 1 0 57.5 2 0
          57.5 3 0 57.5 4 0
          57.5 5 0 57.5 6 0
          57.5 7 0 57.5 8 0
          57.5 9 0 57.5 10 0
          57.5 11 0 57.5 12 0
          58.5 -12 0 58.5 -11 0
          58.5 -10 0 58.5 -9 0
          58.5 -8 0 58.5 -7 0
          58.5 -6 0 58.5 -5 0
          58.5 -4 0 58.5 -3 0
          58.5 -2 0 58.5 -1 0
          58.5 0 0 58.5 1 0
          58.5 2 0 58.5 3 0
          58.5 4 0 58.5 5 0
          58.5 6 0 58.5 7 0
          58.5 8 0 58.5 9 0
          58.5 10 0 58.5 11 0
          58.5 12 0 59.5 -12 0
          59.5 -11 0 59.5 -10 0
          59.5 -9 0 59.5 -8 0
          59.5 -7 0 59.5 -6 0
          59.5 -5 0 59.5 -4 0
          59.5 -3 0 59.5 -2 0
          59.5 -1 0 59.5 0 0
          59.5 1 0 59.5 2 0
          59.5 3 0 59.5 4 0
          59.5 5 0 59.5 6 0
          59.5 7 0 59.5 8 0
          59.5 9 0 59.5 10 0
          59.5 11 0 59.5 12 0
          60.5 -12 0 60.5 -11 0
          60.5 -10 0 60.5 -9 0
          60.5 -8 0 60.5 -7 0
          60.5 -6 0 60.5 -5 0
          60.5 -4 0 60.5 -3 0
          60.5 -2 0 60.5 -1 0
          60.5 0 0 60.5 1 0
          60.5 2 0 60.5 3 0
          60.5 4 0 60.5 5 0
          60.5 6 0 60.5 7 0
          60.5 8 0 60.5 9 0
          60.5 10 0 60.5 11 0
          60.5 12 0 61.5 -12 0
          61.5 -11 0 61.5 -10 0
          61.5 -9 0 61.5 -8 0
          61.5 -7 0 61.5 -6 0
          61.5 -5 0 61.5 -4 0
          61.5 -3 0 61.5 -2 0
          61.5 -1 0 61.5 0 0
          61.5 1 0 61.5 2 0
          61.5 3 0 61.5 4 0
          61.5 5 0 61.5 6 0
          61.5 7 0 61.5 8 0
          61.5 9 0 61.5 10 0
          61.5 11 0 61.5 12 0
          62.5 -12 0 62.5 -11 0
          62.5 -10 0 62.5 -9 0
          62.5 -8 0 62.5 -7 0
          62.5 -6 0 62.5 -5 0
          62.5 -4 0 62.5 -3 0
          62.5 -2 0 62.5 -1 0
          62.5 0 0 62.5 1 0
          62.5 2 0 62.5 3 0
          62.5 4 0 62.5 5 0
          62.5 6 0 62.5 7 0
          62.5 8 0 62.5 9 0
          62.5 10 0 62.5 11 0
          62.5 12 0 63.5 -12 0
          63.5 -11 0 63.5 -10 0
          63.5 -9 0 63.5 -8 0
          63.5 -7 0 63.5 -6 0
          63.5 -5 0 63.5 -4 0
          63.5 -3 0 63.5 -2 0
          63.5 -1 0 63.5 0 0
          63.5 1 0 63.5 2 0
          63.5 3 0 63.5 4 0
          63.5 5 0 63.5 6 0
          63.5 7 0 63.5 8 0
          63.5 9 0 63.5 10 0
          63.5 11 0 63.5 12 0
          64.5 -12 0 64.5 -11 0
          64.5 -10 0 64.5 -9 0
          64.5 -8 0 64.5 -7 0
          64.5 -6 0 64.5 -5 0
          64.5 -4 0 64.5 -3 0
          64.5 -2 0 64.5 -1 0
          64.5 0 0 64.5 1 0
          64.5 2 0 64.5 3 0
          64.5 4 0 64.5 5 0
          64.5 6 0 64.5 7 0
          64.5 8 0 64.5 9 0
          64.5 10 0 64.5 11 0
          64.5 12 0 65.5 -12 0
          65.5 -11 0 65.5 -10 0
          65.5 -9 0 65.5 -8 0
          65.5 -7 0 65.5 -6 0
          65.5 -5 0 65.5 -4 0
          65.5 -3 0 65.5 -2 0
          65.5 -1 0 65.5 0 0
          65.5 1 0 65.5 2 0
          65.5 3 0 65.5 4 0
          65.5 5 0 65.5 6 0
          65.5 7 0 65.5 8 0
          65.5 9 0 65.5 10 0
          65.5 11 0 65.5 12 0
          66.5 -12 0 66.5 -11 0
          66.5 -10 0 66.5 -9 0
          66.5 -8 0 66.5 -7 0
          66.5 -6 0 66.5 -5 0
          66.5 -4 0 66.5 -3 0
          66.5 -2 0 66.5 -1 0
          66.5 0 0 66.5 1 0
          66.5 2 0 66.5 3 0
          66.5 4 0 66.5 5 0
          66.5 6 0 66.5 7 0
          66.5 8 0 66.5 9 0
          66.5 10 0 66.5 11 0
          66.5 12 0 67.5 -12 0
          67.5 -11 0 67.5 -10 0
          67.5 -9 0 67.5 -8 0
          67.5 -7 0 67.5 -6 0
          67.5 -5 0 67.5 -4 0
          67.5 -3 0 67.5 -2 0
          67.5 -1 0 67.5 0 0
          67.5 1 0 67.5 2 0
          67.5 3 0 67.5 4 0
          67.5 5 0 67.5 6 0
          67.5 7 0 67.5 8 0
          67.5 9 0 67.5 10 0
          67.5 11 0 67.5 12 0
          68.5 -12 0 68.5 -11 0
          68.5 -10 0 68.5 -9 0
          68.5 -8 0 68.5 -7 0
          68.5 -6 0 68.5 -5 0
          68.5 -4 0 68.5 -3 0
          68.5 -2 0 68.5 -1 0
          68.5 0 0 68.5 1 0
          68.5 2 0 68.5 3 0
          68.5 4 0 68.5 5 0
          68.5 6 0 68.5 7 0
          68.5 8 0 68.5 9 0
          68.5 10 0 68.5 11 0
          68.5 12 0 69.5 -12 0
          69.5 -11 0 69.5 -10 0
          69.5 -9 0 69.5 -8 0
          69.5 -7 0 69.5 -6 0
          69.5 -5 0 69.5 -4 0
          69.5 -3 0 69.5 -2 0
          69.5 -1 0 69.5 0 0
          69.5 1 0 69.5 2 0
          69.5 3 0 69.5 4 0
          69.5 5 0 69.5 6 0
          69.5 7 0 69.5 8 0
          69.5 9 0 69.5 10 0
          69.5 11 0 69.5 12 0
          70.5 -12 0 70.5 -11 0
          70.5 -10 0 70.5 -9 0
          70.5 -8 0 70.5 -7 0
          70.5 -6 0 70.5 -5 0
          70.5 -4 0 70.5 -3 0
          70.5 -2 0 70.5 -1 0
          70.5 0 0 70.5 1 0
          70.5 2 0 70.5 3 0
          70.5 4 0 70.5 5 0
          70.5 6 0 70.5 7 0
          70.5 8 0 70.5 9 0
          70.5 10 0 70.5 11 0
          70.5 12 0 71.5 -12 0
          71.5 -11 0 71.5 -10 0
          71.5 -9 0 71.5 -8 0
          71.5 -7 0 71.5 -6 0
          71.5 -5 0 71.5 -4 0
          71.5 -3 0 71.5 -2 0
          71.5 -1 0 71.5 0 0
          71.5 1 0 71.5 2 0
          71.5 3 0 71.5 4 0
          71.5 5 0 71.5 6 0
          71.5 7 0 71.5 8 0
          71.5 9 0 71.5 10 0
          71.5 11 0 71.5 12 0
          72.5 -12 0 72.5 -11 0
          72.5 -10 0 72.5 -9 0
          72.5 -8 0 72.5 -7 0
          72.5 -6 0 72.5 -5 0
          72.5 -4 0 72.5 -3 0
          72.5 -2 0 72.5 -1 0
          72.5 0 0 72.5 1 0
          72.5 2 0 72.5 3 0
          72.5 4 0 72.5 5 0
          72.5 6 0 72.5 7 0
          72.5 8 0 72.5 9 0
          72.5 10 0 72.5 11 0
          72.5 12 0 73.5 -12 0
          73.5 -11 0 73.5 -10 0
          73.5 -9 0 73.5 -8 0
          73.5 -7 0 73.5 -6 0
          73.5 -5 0 73.5 -4 0
          73.5 -3 0 73.5 -2 0
          73.5 -1 0 73.5 0 0
          73.5 1 0 73.5 2 0
          73.5 3 0 73.5 4 0
          73.5 5 0 73.5 6 0
          73.5 7 0 73.5 8 0
          73.5 9 0 73.5 10 0
          73.5 11 0 73.5 12 0
          74.5 -12 0 74.5 -11 0
          74.5 -10 0 74.5 -9 0
          74.5 -8 0 74.5 -7 0
          74.5 -6 0 74.5 -5 0
          74.5 -4 0 74.5 -3 0
          74.5 -2 0 74.5 -1 0
          74.5 0 0 74.5 1 0
          74.5 2 0 74.5 3 0
          74.5 4 0 74.5 5 0
          74.5 6 0 74.5 7 0
          74.5 8 0 74.5 9 0
          74.5 10 0 74.5 11 0
          74.5 12 0
        </DataArray>
      </Points>
      <Cells>
        <DataArray type="Int64" Name="connectivity" format="ascii" RangeMin="1e+299" RangeMax="-1e+299">
        </DataArray>
        <DataArray type="Int64" Name="offsets" format="ascii" RangeMin="1e+299" RangeMax="-1e+299">
        </DataArray>
        <DataArray type="UInt8" Name="types" format="ascii" RangeMin="1e+299" RangeMax="-1e+299">
        </DataArray>
      </Cells>
    </Piece>
  </UnstructuredGrid>
</VTKFile>
