<?xml version="1.0"?>
<VTKFile type="UnstructuredGrid" version="0.1" byte_order="LittleEndian" header_type="UInt32" compressor="vtkZLibDataCompressor">
  <UnstructuredGrid>
    <Piece NumberOfPoints="1875" NumberOfCells="0">
      <PointData>
        <DataArray type="Float64" Name="Displacement" NumberOfComponents="2" ComponentName0="d_x" ComponentName1="d_y" format="ascii" RangeMin="0.00099992752075" RangeMax="1.4748052014">
          0.32300001383 -1.4390001297 0.29600000381 -1.4390001297 0.26800000668 -1.4390001297
          0.24000000954 -1.4390001297 0.21299999952 -1.4390001297 0.18599998951 -1.4390001297
          0.1589999795 -1.4390001297 0.13300001621 -1.4390001297 0.1060000062 -1.4390001297
          0.078999996185 -1.4390001297 0.052999973297 -1.4389998913 0.026000022888 -1.4389998913
          0 -1.4390000105 -0.025999993086 -1.4390000105 -0.053000003099 -1.4390000105
          -0.078999996185 -1.4390000105 -0.1060000062 -1.4389998913 -0.13299998641 -1.4389998913
          -0.1590000093 -1.4390001297 -0.18599998951 -1.4390001297 -0.21299999952 -1.4390001297
          -0.24000000954 -1.4390001297 -0.26800000668 -1.4390001297 -0.29600000381 -1.4390001297
          -0.32299999893 -1.4390001297 0.32299995422 -1.4110002518 0.29499995708 -1.4110002518
          0.26800000668 -1.4110002518 0.24000000954 -1.4110002518 0.21300005913 -1.4110002518
          0.18599998951 -1.4110002518 0.1590000391 -1.4109997749 0.13300001621 -1.4109997749
          0.10599994659 -1.4109997749 0.078999996185 -1.4109997749 0.052999973297 -1.4110000134
          0.026000022888 -1.4110000134 0 -1.4110000134 -0.026000022888 -1.4110000134
          -0.052999973297 -1.4110000134 -0.078999996185 -1.4110000134 -0.10599994659 -1.4110000134
          -0.13300001621 -1.4110000134 -0.1590000391 -1.4109997749 -0.18599998951 -1.4109997749
          -0.21300005913 -1.4109997749 -0.24000000954 -1.4109997749 -0.26800000668 -1.4110002518
          -0.29499995708 -1.4110002518 -0.32299995422 -1.4110002518 0.32299995422 -1.3830003738
          0.29500007629 -1.3830003738 0.26799988747 -1.3830003738 0.24000000954 -1.3830003738
          0.21300005913 -1.3819999695 0.18600010872 -1.3819999695 0.15899991989 -1.3819999695
          0.13199996948 -1.3819999695 0.10599994659 -1.3819999695 0.078999996185 -1.3819999695
          0.052999973297 -1.3819999695 0.026000022888 -1.3819999695 0 -1.3819999695
          -0.026000022888 -1.3819999993 -0.052999973297 -1.3820000291 -0.078999996185 -1.3819999695
          -0.10599994659 -1.3819999695 -0.13199996948 -1.3819999695 -0.15899991989 -1.3819999695
          -0.18600010872 -1.3819999695 -0.21300005913 -1.3819999695 -0.24000000954 -1.382999897
          -0.26799988747 -1.3830003738 -0.29500007629 -1.3830003738 -0.32299995422 -1.3830003738
          0.32299995422 -1.3549995422 0.29500007629 -1.3540000916 0.26699995995 -1.3540000916
          0.24000000954 -1.3540000916 0.21300005913 -1.3540000916 0.18600010872 -1.3540000916
          0.15899991989 -1.3540000916 0.13199996948 -1.3540000916 0.10599994659 -1.3540000916
          0.078999996185 -1.3540000916 0.052999973297 -1.3540000916 0.026000022888 -1.3540000916
          0 -1.3539999723 -0.026000022888 -1.3540000021 -0.052999973297 -1.3539999723
          -0.078999996185 -1.3539999723 -0.10599994659 -1.3540000916 -0.13199996948 -1.3540000916
          -0.15899991989 -1.3540000916 -0.18600010872 -1.3540000916 -0.21300005913 -1.3540000916
          -0.24000000954 -1.3540000916 -0.26699995995 -1.3540000916 -0.29500007629 -1.3540000916
          -0.32299995422 -1.3549995422 0.3220000267 -1.3269996643 0.29500007629 -1.3260002136
          0.26700019836 -1.3260002136 0.23999977112 -1.3260002136 0.21299982071 -1.3260002136
          0.1859998703 -1.3260002136 0.15899991989 -1.3260002136 0.13199996948 -1.3260002136
          0.10599994659 -1.3260002136 0.078999996185 -1.3260002136 0.052999973297 -1.3259999752
          0.026000022888 -1.3259999752 0 -1.3259999752 -0.026000022888 -1.326000005
          -0.052999973297 -1.3259999752 -0.078999996185 -1.3259999752 -0.10599994659 -1.3259999752
          -0.13199996948 -1.3259999752 -0.15899991989 -1.3260002136 -0.1859998703 -1.3260002136
          -0.21299982071 -1.3260002136 -0.23999977112 -1.3260002136 -0.26700019836 -1.3260002136
          -0.29500007629 -1.3260002136 -0.3220000267 -1.3269996643 0.3220000267 -1.2980003357
          0.29400014877 -1.2980003357 0.26599979401 -1.2980003357 0.2389998436 -1.2980003357
          0.21199989319 -1.2980003357 0.18499994278 -1.2980003357 0.15799999237 -1.2979998589
          0.13199996948 -1.2979998589 0.10500001907 -1.2969999313 0.078999996185 -1.2969999313
          0.052999973297 -1.2969999313 0.026000022888 -1.2969999313 0 -1.2970000505
          -0.026000022888 -1.2969999909 -0.052999973297 -1.2969999909 -0.078999996185 -1.2970000505
          -0.10500001907 -1.2969999313 -0.13199996948 -1.2980000973 -0.15799999237 -1.2979998589
          -0.18499994278 -1.2979998589 -0.21199989319 -1.2979998589 -0.2389998436 -1.2979998589
          -0.26599979401 -1.2980003357 -0.29400014877 -1.2980003357 -0.3220000267 -1.2980003357
          0.32100009918 -1.2700004578 0.29300022125 -1.2700004578 0.26599979401 -1.2700004578
          0.2389998436 -1.2700004578 0.21199989319 -1.2700004578 0.18499994278 -1.2700004578
          0.15799999237 -1.2690000534 0.13199996948 -1.2690000534 0.10500001907 -1.2690000534
          0.078999996185 -1.2690000534 0.052000045776 -1.2690000534 0.026000022888 -1.2690000534
          0 -1.2690000534 -0.026000022888 -1.2689999938 -0.052000045776 -1.2689999938
          -0.078999996185 -1.2690000534 -0.10500001907 -1.2690000534 -0.13199996948 -1.2690000534
          -0.15799999237 -1.2690000534 -0.18499994278 -1.2699999809 -0.21199989319 -1.2699999809
          -0.2389998436 -1.2699999809 -0.26599979401 -1.2700004578 -0.29300022125 -1.2700004578
          -0.32100009918 -1.2700004578 0.32000017166 -1.2430000305 0.29300022125 -1.2419996262
          0.26499986649 -1.2419996262 0.23799991608 -1.2419996262 0.21099996567 -1.2419996262
          0.18400001526 -1.2419996262 0.15799999237 -1.2410001755 0.13100004196 -1.2410001755
          0.10500001907 -1.2410001755 0.078999996185 -1.2410001755 0.052000045776 -1.2409999371
          0.026000022888 -1.2409999371 0 -1.2410000563 -0.026000022888 -1.2409999967
          -0.052000045776 -1.2409999967 -0.078999996185 -1.2410000563 -0.10500001907 -1.2409999371
          -0.13100004196 -1.2409999371 -0.15799999237 -1.2410001755 -0.18400001526 -1.242000103
          -0.21099996567 -1.242000103 -0.23799991608 -1.242000103 -0.26499986649 -1.2419996262
          -0.29300022125 -1.2419996262 -0.32000017166 -1.2430000305 0.31900024414 -1.2150001526
          0.29199981689 -1.2139997482 0.26399993896 -1.2139997482 0.23700046539 -1.2139997482
          0.2110004425 -1.2139997482 0.18400001526 -1.2139997482 0.15699958801 -1.2129998207
          0.13099956512 -1.2129998207 0.10499954224 -1.2129998207 0.078000068665 -1.2129998207
          0.052000045776 -1.2130000591 0.026000022888 -1.2130000591 0 -1.2130000591
          -0.026000022888 -1.2129999995 -0.052000045776 -1.2129999995 -0.078000068665 -1.2130000591
          -0.10499954224 -1.2130000591 -0.13099956512 -1.2130000591 -0.15699958801 -1.2129998207
          -0.18400001526 -1.2140002251 -0.2110004425 -1.2140002251 -0.23700046539 -1.2140002251
          -0.26399993896 -1.2139997482 -0.29199981689 -1.2139997482 -0.31900024414 -1.2150001526
          0.31799983978 -1.1870002747 0.29100036621 -1.1870002747 0.26399993896 -1.1859998703
          0.23700046539 -1.1859998703 0.21000003815 -1.1859998703 0.1829996109 -1.1859998703
          0.15699958801 -1.1849999428 0.13000011444 -1.1849999428 0.10400009155 -1.1849999428
          0.078000068665 -1.1849999428 0.052000045776 -1.1849999428 0.026000022888 -1.1849999428
          0 -1.1849999428 -0.026000022888 -1.1850000024 -0.052000045776 -1.1850000024
          -0.078000068665 -1.1849999428 -0.10400009155 -1.1849999428 -0.13000011444 -1.1849999428
          -0.15699958801 -1.1849999428 -0.1829996109 -1.1859998703 -0.21000003815 -1.1859998703
          -0.23700046539 -1.1859998703 -0.26399993896 -1.1859998703 -0.29100036621 -1.1870002747
          -0.31799983978 -1.1870002747 0.3170003891 -1.1590003967 0.28999996185 -1.1590003967
          0.26299953461 -1.1590003967 0.23600006104 -1.1579999924 0.20899963379 -1.1579999924
          0.1829996109 -1.1579999924 0.15600013733 -1.1579999924 0.13000011444 -1.1570000648
          0.10400009155 -1.1570000648 0.078000068665 -1.1570000648 0.052000045776 -1.1570000648
          0.026000022888 -1.1570000648 0 -1.1569999456 -0.026000022888 -1.1570000052
          -0.052000045776 -1.1570000052 -0.078000068665 -1.1569999456 -0.10400009155 -1.1570000648
          -0.13000011444 -1.1570000648 -0.15600013733 -1.1579999924 -0.1829996109 -1.1579999924
          -0.20899963379 -1.1579999924 -0.23600006104 -1.1579999924 -0.26299953461 -1.1590003967
          -0.28999996185 -1.1590003967 -0.3170003891 -1.1590003967 0.31599998474 -1.1319999695
          0.2889995575 -1.1309995651 0.26200008392 -1.1309995651 0.23499965668 -1.1309995651
          0.20800018311 -1.1300001144 0.18200016022 -1.1300001144 0.15600013733 -1.1300001144
          0.12899971008 -1.1300001144 0.10299968719 -1.1300001144 0.076999664307 -1.1290001869
          0.052000045776 -1.1289999485 0.026000022888 -1.1289999485 0 -1.1289999485
          -0.026000022888 -1.1289999932 -0.052000045776 -1.1290000081 -0.076999664307 -1.1289999485
          -0.10299968719 -1.1300001144 -0.12899971008 -1.1300001144 -0.15600013733 -1.1300001144
          -0.18200016022 -1.1300001144 -0.20800018311 -1.1300001144 -0.23499965668 -1.131000042
          -0.26200008392 -1.1309995651 -0.2889995575 -1.1309995651 -0.31599998474 -1.1319999695
          0.3140001297 -1.1040000916 0.28699970245 -1.1040000916 0.26000022888 -1.1029996872
          0.23400020599 -1.1029996872 0.20699977875 -1.1029996872 0.18099975586 -1.1020002365
          0.15499973297 -1.1020002365 0.12899971008 -1.1020002365 0.10299968719 -1.1020002365
          0.076999664307 -1.1020002365 0.050999641418 -1.1019999981 0.026000022888 -1.1019999981
          0 -1.1019999981 -0.026000022888 -1.1019999981 -0.050999641418 -1.1019999981
          -0.076999664307 -1.1019999981 -0.10299968719 -1.1019999981 -0.12899971008 -1.1019999981
          -0.15499973297 -1.1020002365 -0.18099975586 -1.1020002365 -0.20699977875 -1.103000164
          -0.23400020599 -1.103000164 -0.26000022888 -1.1029996872 -0.28699970245 -1.1040000916
          -0.3140001297 -1.1040000916 0.31299972534 -1.0769996643 0.28600025177 -1.0760002136
          0.25899982452 -1.0760002136 0.23299980164 -1.0760002136 0.20600032806 -1.0749998093
          0.18000030518 -1.0749998093 0.15400028229 -1.0749998093 0.1280002594 -1.0739998817
          0.10200023651 -1.0739998817 0.076999664307 -1.0739998817 0.050999641418 -1.0739998817
          0.026000022888 -1.0739998817 0 -1.074000001 -0.026000022888 -1.074000001
          -0.050999641418 -1.074000001 -0.076999664307 -1.074000001 -0.10200023651 -1.0739998817
          -0.1280002594 -1.0739998817 -0.15400028229 -1.0749998093 -0.18000030518 -1.0749998093
          -0.20600032806 -1.0749998093 -0.23299980164 -1.0760002136 -0.25899982452 -1.0760002136
          -0.28600025177 -1.0760002136 -0.31299972534 -1.0769996643 0.3109998703 -1.0500001907
          0.28400039673 -1.0489997864 0.25800037384 -1.0489997864 0.23099994659 -1.0480003357
          0.20499992371 -1.0480003357 0.17899990082 -1.0480003357 0.15299987793 -1.0469999313
          0.1280002594 -1.0469999313 0.10200023651 -1.0469999313 0.076000213623 -1.0469999313
          0.050999641418 -1.0469999313 0.02499961853 -1.0469999313 0 -1.0470000505
          -0.02499961853 -1.0469999984 -0.050999641418 -1.0469999909 -0.076000213623 -1.0470000505
          -0.10200023651 -1.0469999313 -0.1280002594 -1.0469999313 -0.15299987793 -1.0469999313
          -0.17899990082 -1.0479998589 -0.20499992371 -1.0479998589 -0.23099994659 -1.0479998589
          -0.25800037384 -1.0489997864 -0.28400039673 -1.0489997864 -0.3109998703 -1.0500001907
          0.31000041962 -1.0220003128 0.28299999237 -1.0220003128 0.25599956512 -1.0220003128
          0.22999954224 -1.0209999084 0.20400047302 -1.0209999084 0.17800045013 -1.0200004578
          0.15200042725 -1.0199999809 0.12699985504 -1.0199999809 0.10099983215 -1.0199999809
          0.076000213623 -1.0190000534 0.050999641418 -1.0190000534 0.02499961853 -1.0190000534
          0 -1.0190000534 -0.02499961853 -1.0189999994 -0.050999641418 -1.0189999938
          -0.076000213623 -1.0190000534 -0.10099983215 -1.0199999809 -0.12699985504 -1.0199999809
          -0.15200042725 -1.0199999809 -0.17800045013 -1.0199999809 -0.20400047302 -1.0209999084
          -0.22999954224 -1.0209999084 -0.25599956512 -1.0220003128 -0.28299999237 -1.0220003128
          -0.31000041962 -1.0220003128 0.30800056458 -0.99600028992 0.28100013733 -0.99499988556
          0.25499916077 -0.99499988556 0.22900009155 -0.99400043488 0.20299911499 -0.99400043488
          0.17700004578 -0.99300003052 0.15200042725 -0.99300003052 0.12599945068 -0.99300003052
          0.10099983215 -0.99300003052 0.075000762939 -0.992000103 0.049999237061 -0.992000103
          0.02499961853 -0.99199998379 0 -0.99199998379 -0.02499961853 -0.99199999962
          -0.049999237061 -0.99199998379 -0.075000762939 -0.992000103 -0.10099983215 -0.99300003052
          -0.12599945068 -0.99300003052 -0.15200042725 -0.99300003052 -0.17700004578 -0.99300003052
          -0.20299911499 -0.99399995804 -0.22900009155 -0.99400043488 -0.25499916077 -0.99499988556
          -0.28100013733 -0.99499988556 -0.30800056458 -0.99600028992 0.30599975586 -0.96899986267
          0.27899932861 -0.96800041199 0.2530002594 -0.96800041199 0.22699928284 -0.96700000763
          0.20199966431 -0.96700000763 0.17600059509 -0.96600008011 0.15099906921 -0.96600008011
          0.125 -0.96600008011 0.10000038147 -0.96600008011 0.075000762939 -0.96499991417
          0.049999237061 -0.96499991417 0.02499961853 -0.96500003338 0 -0.96499997377
          -0.02499961853 -0.96499999985 -0.049999237061 -0.96500003338 -0.075000762939 -0.96499991417
          -0.10000038147 -0.96600008011 -0.125 -0.96600008011 -0.15099906921 -0.96600008011
          -0.17600059509 -0.96600008011 -0.20199966431 -0.96700000763 -0.22699928284 -0.96700000763
          -0.2530002594 -0.96800041199 -0.27899932861 -0.96800041199 -0.30599975586 -0.96899986267
          0.30400085449 -0.9420003891 0.27799987793 -0.9420003891 0.25200080872 -0.94099998474
          0.22599983215 -0.93999958038 0.20000076294 -0.93999958038 0.17499923706 -0.94000005722
          0.14900016785 -0.9390001297 0.12400054932 -0.9390001297 0.099000930786 -0.9390001297
          0.073999404907 -0.93899989128 0.049999237061 -0.93799996376 0.02499961853 -0.93799996376
          0 -0.93800002337 -0.02499961853 -0.93800000101 -0.049999237061 -0.93799996376
          -0.073999404907 -0.93899989128 -0.099000930786 -0.93899989128 -0.12400054932 -0.9390001297
          -0.14900016785 -0.9390001297 -0.17499923706 -0.94000005722 -0.20000076294 -0.94000005722
          -0.22599983215 -0.93999958038 -0.25200080872 -0.94099998474 -0.27799987793 -0.9420003891
          -0.30400085449 -0.9420003891 0.30200004578 -0.91600036621 0.27499961853 -0.91499996185
          0.25 -0.9139995575 0.22400093079 -0.9139995575 0.19899940491 -0.91300010681
          0.17300033569 -0.91300010681 0.14800071716 -0.91300010681 0.12299919128 -0.91200017929
          0.099000930786 -0.91200017929 0.073999404907 -0.91199994087 0.048999786377 -0.91199994087
          0.02499961853 -0.91199994087 0 -0.91200000048 -0.02499961853 -0.91200000048
          -0.048999786377 -0.91199994087 -0.073999404907 -0.91199994087 -0.099000930786 -0.91199994087
          -0.12299919128 -0.91200017929 -0.14800071716 -0.91300010681 -0.17300033569 -0.91300010681
          -0.19899940491 -0.91300010681 -0.22400093079 -0.9139995575 -0.25 -0.9139995575
          -0.27499961853 -0.91499996185 -0.30200004578 -0.91600036621 0.29899978638 -0.88899993896
          0.27300071716 -0.88899993896 0.24799919128 -0.88799953461 0.22200012207 -0.88799953461
          0.19700050354 -0.88700008392 0.17200088501 -0.88700008392 0.14699935913 -0.8860001564
          0.1219997406 -0.8860001564 0.097999572754 -0.8860001564 0.072999954224 -0.88499999046
          0.048999786377 -0.88499999046 0.024000167847 -0.88499999046 0 -0.88499999046
          -0.024000167847 -0.88499999791 -0.048999786377 -0.88499999046 -0.072999954224 -0.88499999046
          -0.097999572754 -0.88599991798 -0.1219997406 -0.8860001564 -0.14699935913 -0.8860001564
          -0.17200088501 -0.88700008392 -0.19700050354 -0.88700008392 -0.22200012207 -0.88799953461
          -0.24799919128 -0.88799953461 -0.27300071716 -0.88899993896 -0.29899978638 -0.88899993896
          0.29700088501 -0.86299991608 0.27099990845 -0.86299991608 0.24600028992 -0.86200046539
          0.22100067139 -0.86100006104 0.19599914551 -0.86100006104 0.17099952698 -0.86000013351
          0.14599990845 -0.86000013351 0.12100028992 -0.86000013351 0.09700012207 -0.85900020599
          0.072999954224 -0.85899996758 0.048000335693 -0.85899996758 0.024000167847 -0.85899996758
          0 -0.85900002718 -0.024000167847 -0.85899999738 -0.048000335693 -0.85899996758
          -0.072999954224 -0.85899996758 -0.09700012207 -0.85899996758 -0.12100028992 -0.86000013351
          -0.14599990845 -0.86000013351 -0.17099952698 -0.86000013351 -0.19599914551 -0.86100006104
          -0.22100067139 -0.86100006104 -0.24600028992 -0.86200046539 -0.27099990845 -0.86299991608
          -0.29700088501 -0.86299991608 0.29400062561 -0.83800029755 0.26899909973 -0.83699989319
          0.2439994812 -0.8360004425 0.21899986267 -0.8360004425 0.19400024414 -0.83500003815
          0.16900062561 -0.83500003815 0.14500045776 -0.83400011063 0.12000083923 -0.83400011063
          0.096000671387 -0.83300018311 0.07200050354 -0.83299994469 0.048000335693 -0.83299994469
          0.024000167847 -0.83299994469 0 -0.83300000429 -0.024000167847 -0.83300000429
          -0.048000335693 -0.83299994469 -0.07200050354 -0.83299994469 -0.096000671387 -0.83299994469
          -0.12000083923 -0.83400011063 -0.14500045776 -0.83400011063 -0.16900062561 -0.83500003815
          -0.19400024414 -0.83500003815 -0.21899986267 -0.8360004425 -0.2439994812 -0.8360004425
          -0.26899909973 -0.83699989319 -0.29400062561 -0.83800029755 0.29199981689 -0.81200027466
          0.26600074768 -0.8109998703 0.2409992218 -0.81000041962 0.21699905396 -0.81000041962
          0.19199943542 -0.80900001526 0.16799926758 -0.80900001526 0.14299964905 -0.80800008774
          0.1189994812 -0.80800008774 0.094999313354 -0.80800008774 0.070999145508 -0.8069999218
          0.048000335693 -0.8069999218 0.024000167847 -0.80700004101 0 -0.8069999814
          -0.024000167847 -0.8069999963 -0.048000335693 -0.80700004101 -0.070999145508 -0.8069999218
          -0.094999313354 -0.80800008774 -0.1189994812 -0.80800008774 -0.14299964905 -0.80800008774
          -0.16799926758 -0.80900001526 -0.19199943542 -0.80900001526 -0.21699905396 -0.81000041962
          -0.2409992218 -0.81000041962 -0.26600074768 -0.8109998703 -0.29199981689 -0.81200027466
          0.2889995575 -0.78699970245 0.26399993896 -0.78600025177 0.23900032043 -0.78499984741
          0.21500015259 -0.78400039673 0.19000053406 -0.78400039673 0.16600036621 -0.78299999237
          0.14200019836 -0.78299999237 0.11800003052 -0.78200006485 0.093999862671 -0.78200006485
          0.070999145508 -0.78200006485 0.04700088501 -0.78200006485 0.024000167847 -0.78199994564
          0 -0.78100001812 -0.024000167847 -0.78200000525 -0.04700088501 -0.78199994564
          -0.070999145508 -0.78200006485 -0.093999862671 -0.78200006485 -0.11800003052 -0.78200006485
          -0.14200019836 -0.78299999237 -0.16600036621 -0.78299999237 -0.19000053406 -0.78399991989
          -0.21500015259 -0.78400039673 -0.23900032043 -0.78499984741 -0.26399993896 -0.78600025177
          -0.2889995575 -0.78699970245 0.2859992981 -0.76099967957 0.26099967957 -0.76099967957
          0.23699951172 -0.76000022888 0.21199989319 -0.75899982452 0.18799972534 -0.75800037384
          0.1639995575 -0.757999897 0.14100074768 -0.75699996948 0.11700057983 -0.75699996948
          0.093000411987 -0.75699996948 0.069999694824 -0.75600004196 0.04700088501 -0.75600004196
          0.023000717163 -0.75600004196 0 -0.75599998236 -0.023000717163 -0.75599999726
          -0.04700088501 -0.75600004196 -0.069999694824 -0.75600004196 -0.093000411987 -0.75699996948
          -0.11700057983 -0.75699996948 -0.14100074768 -0.75699996948 -0.1639995575 -0.757999897
          -0.18799972534 -0.757999897 -0.21199989319 -0.75899982452 -0.23699951172 -0.76000022888
          -0.26099967957 -0.76099967957 -0.2859992981 -0.76099967957 0.28300094604 -0.73600006104
          0.25799942017 -0.73600006104 0.23399925232 -0.73499965668 0.20999908447 -0.73400020599
          0.18600082397 -0.73299980164 0.16300010681 -0.73299980164 0.13899993896 -0.73199987411
          0.1159992218 -0.73199987411 0.091999053955 -0.73199987411 0.069000244141 -0.73099994659
          0.045999526978 -0.73099994659 0.023000717163 -0.73099994659 0 -0.7310000062
          -0.023000717163 -0.7310000062 -0.045999526978 -0.73099994659 -0.069000244141 -0.73099994659
          -0.091999053955 -0.73200011253 -0.1159992218 -0.73199987411 -0.13899993896 -0.73199987411
          -0.16300010681 -0.73299980164 -0.18600082397 -0.73299980164 -0.20999908447 -0.73400020599
          -0.23399925232 -0.73499965668 -0.25799942017 -0.73600006104 -0.28300094604 -0.73600006104
          0.28000068665 -0.71199989319 0.2560005188 -0.7110004425 0.23200035095 -0.71000003815
          0.20800018311 -0.70899963379 0.18400001526 -0.70899963379 0.1609992981 -0.70800018311
          0.13800048828 -0.70800018311 0.11400032043 -0.70699977875 0.090999603271 -0.70699977875
          0.068000793457 -0.70600008965 0.045999526978 -0.70600008965 0.023000717163 -0.70599997044
          0 -0.70599997044 -0.023000717163 -0.70600000024 -0.045999526978 -0.70599997044
          -0.068000793457 -0.70600008965 -0.090999603271 -0.70700001717 -0.11400032043 -0.70699977875
          -0.13800048828 -0.70800018311 -0.1609992981 -0.70800018311 -0.18400001526 -0.70900011063
          -0.20800018311 -0.70899963379 -0.23200035095 -0.71000003815 -0.2560005188 -0.7110004425
          -0.28000068665 -0.71199989319 0.27700042725 -0.68700027466 0.2530002594 -0.6859998703
          0.22900009155 -0.6859998703 0.20499992371 -0.68500041962 0.18199920654 -0.68400001526
          0.15900039673 -0.68300008774 0.13599967957 -0.68300008774 0.11300086975 -0.68300008774
          0.090000152588 -0.68200016022 0.068000793457 -0.6819999218 0.045000076294 -0.6819999218
          0.023000717163 -0.68200004101 0 -0.68099999428 -0.023000717163 -0.68200001121
          -0.045000076294 -0.68200004101 -0.068000793457 -0.6819999218 -0.090000152588 -0.6819999218
          -0.11300086975 -0.68300008774 -0.13599967957 -0.68300008774 -0.15900039673 -0.68300008774
          -0.18199920654 -0.68400001526 -0.20499992371 -0.68500041962 -0.22900009155 -0.6859998703
          -0.2530002594 -0.6859998703 -0.27700042725 -0.68700027466 0.27300071716 -0.66300010681
          0.25 -0.66199970245 0.22599983215 -0.66100025177 0.20299911499 -0.66100025177
          0.18000030518 -0.65999984741 0.15699958801 -0.65899991989 0.1340007782 -0.65899991989
          0.11199951172 -0.65799999237 0.089000701904 -0.65799999237 0.066999435425 -0.65799999237
          0.045000076294 -0.65700006485 0.021999359131 -0.65699994564 0 -0.65700000525
          -0.021999359131 -0.65700000525 -0.045000076294 -0.65699994564 -0.066999435425 -0.65799999237
          -0.089000701904 -0.65799999237 -0.11199951172 -0.65799999237 -0.1340007782 -0.65899991989
          -0.15699958801 -0.65899991989 -0.18000030518 -0.65999984741 -0.20299911499 -0.66100025177
          -0.22599983215 -0.66100025177 -0.25 -0.66199970245 -0.27300071716 -0.66300010681
          0.27000045776 -0.63899993896 0.24600028992 -0.63799953461 0.22299957275 -0.63700008392
          0.20000076294 -0.63700008392 0.17799949646 -0.63599967957 0.15500068665 -0.63500022888
          0.13299942017 -0.63500022888 0.11000061035 -0.63399982452 0.087999343872 -0.63399982452
          0.065999984741 -0.632999897 0.04400062561 -0.632999897 0.021999359131 -0.63300001621
          0 -0.63300001621 -0.021999359131 -0.63299998641 -0.04400062561 -0.63300001621
          -0.065999984741 -0.632999897 -0.087999343872 -0.63400006294 -0.11000061035 -0.63399982452
          -0.13299942017 -0.63500022888 -0.15500068665 -0.63500022888 -0.17799949646 -0.6360001564
          -0.20000076294 -0.63700008392 -0.22299957275 -0.63700008392 -0.24600028992 -0.63799953461
          -0.27000045776 -0.63899993896 0.26600074768 -0.61600017548 0.24300003052 -0.61499977112
          0.21999931335 -0.61400032043 0.19799995422 -0.61299991608 0.17499923706 -0.61200046539
          0.15299987793 -0.61199998856 0.1310005188 -0.61100006104 0.10899925232 -0.61000013351
          0.086999893188 -0.61000013351 0.065000534058 -0.6099998951 0.042999267578 -0.6099998951
          0.021999359131 -0.60899996758 0 -0.60900002718 -0.021999359131 -0.60899999738
          -0.042999267578 -0.61000001431 -0.065000534058 -0.6099998951 -0.086999893188 -0.6099998951
          -0.10899925232 -0.61000013351 -0.1310005188 -0.61100006104 -0.15299987793 -0.61199998856
          -0.17499923706 -0.61199998856 -0.19799995422 -0.61299991608 -0.21999931335 -0.61400032043
          -0.24300003052 -0.61499977112 -0.26600074768 -0.61600017548 0.26300048828 -0.59300041199
          0.24000167847 -0.59200000763 0.21699905396 -0.59099960327 0.19499969482 -0.59000015259
          0.17300033569 -0.58899974823 0.15100097656 -0.58799982071 0.12900161743 -0.58799982071
          0.1069984436 -0.58699989319 0.085998535156 -0.58699989319 0.063999176025 -0.58599996567
          0.042999267578 -0.58599996567 0.020999908447 -0.58599996567 0 -0.58600002527
          -0.020999908447 -0.58599999547 -0.042999267578 -0.58599996567 -0.063999176025 -0.58599996567
          -0.085998535156 -0.58699989319 -0.1069984436 -0.58699989319 -0.12900161743 -0.58799982071
          -0.15100097656 -0.58799982071 -0.17300033569 -0.58900022507 -0.19499969482 -0.59000015259
          -0.21699905396 -0.59099960327 -0.24000167847 -0.59200000763 -0.26300048828 -0.59300041199
          0.25899887085 -0.56999969482 0.23600006104 -0.56900024414 0.2140007019 -0.56799983978
          0.19200134277 -0.5670003891 0.16999816895 -0.56599998474 0.1489982605 -0.56500005722
          0.12699890137 -0.5640001297 0.10599899292 -0.5640001297 0.083999633789 -0.56300020218
          0.062999725342 -0.56299996376 0.041999816895 -0.56299996376 0.020999908447 -0.56299996376
          0 -0.56300002337 -0.020999908447 -0.56299999356 -0.041999816895 -0.56299996376
          -0.062999725342 -0.56299996376 -0.083999633789 -0.56299996376 -0.10599899292 -0.5640001297
          -0.12699890137 -0.5640001297 -0.1489982605 -0.56500005722 -0.16999816895 -0.56599998474
          -0.19200134277 -0.5670003891 -0.2140007019 -0.56799983978 -0.23600006104 -0.56900024414
          -0.25899887085 -0.56999969482 0.25500106812 -0.54699993134 0.23300170898 -0.54599952698
          0.21099853516 -0.54500007629 0.18899917603 -0.54399967194 0.16799926758 -0.54300022125
          0.14599990845 -0.54199981689 0.125 -0.54199981689 0.10400009155 -0.54099988937
          0.083000183105 -0.54099988937 0.062000274658 -0.53999996185 0.041000366211 -0.53999996185
          0.020999908447 -0.53999996185 0 -0.54000002146 -0.020999908447 -0.53999999166
          -0.041000366211 -0.53999996185 -0.062000274658 -0.53999996185 -0.083000183105 -0.54099988937
          -0.10400009155 -0.54099988937 -0.125 -0.54199981689 -0.14599990845 -0.54199981689
          -0.16799926758 -0.54300022125 -0.18899917603 -0.54399967194 -0.21099853516 -0.54500007629
          -0.23300170898 -0.54599952698 -0.25500106812 -0.54699993134 0.25099945068 -0.52499961853
          0.22900009155 -0.52400016785 0.20700073242 -0.52299976349 0.18600082397 -0.52200031281
          0.16500091553 -0.52099990845 0.14400100708 -0.51999998093 0.12300109863 -0.51900005341
          0.10200119019 -0.51900005341 0.082000732422 -0.51800012589 0.061000823975 -0.51799988747
          0.041000366211 -0.51799988747 0.020000457764 -0.51699995995 0 -0.51700001955
          -0.020000457764 -0.51699998975 -0.041000366211 -0.51800000668 -0.061000823975 -0.51799988747
          -0.082000732422 -0.51799988747 -0.10200119019 -0.51900005341 -0.12300109863 -0.51900005341
          -0.14400100708 -0.51999998093 -0.16500091553 -0.52099990845 -0.18600082397 -0.52200031281
          -0.20700073242 -0.52299976349 -0.22900009155 -0.52400016785 -0.25099945068 -0.52499961853
          0.24700164795 -0.5030002594 0.22499847412 -0.50199985504 0.20399856567 -0.5
          0.18299865723 -0.49899959564 0.16199874878 -0.49899959564 0.14099884033 -0.49800014496
          0.12099838257 -0.49700021744 0.1010017395 -0.49700021744 0.080001831055 -0.49599981308
          0.060001373291 -0.4960000515 0.040000915527 -0.49499988556 0.020000457764 -0.49500000477
          0 -0.49500000477 -0.020000457764 -0.49500000477 -0.040000915527 -0.49500000477
          -0.060001373291 -0.4960000515 -0.080001831055 -0.4960000515 -0.1010017395 -0.49700021744
          -0.12099838257 -0.49700021744 -0.14099884033 -0.49800014496 -0.16199874878 -0.49900007248
          -0.18299865723 -0.49899959564 -0.20399856567 -0.5 -0.22499847412 -0.50199985504
          -0.24700164795 -0.5030002594 0.24200057983 -0.48099994659 0.22100067139 -0.47999954224
          0.20000076294 -0.47900009155 0.18000030518 -0.47799968719 0.15900039673 -0.47700023651
          0.13899993896 -0.47599983215 0.1189994812 -0.47499990463 0.098999023438 -0.47499990463
          0.078998565674 -0.47399997711 0.05899810791 -0.47399997711 0.039001464844 -0.47399997711
          0.020000457764 -0.47300004959 0 -0.47299998999 -0.020000457764 -0.47299998999
          -0.039001464844 -0.47399997711 -0.05899810791 -0.47399997711 -0.078998565674 -0.47399997711
          -0.098999023438 -0.47499990463 -0.1189994812 -0.47499990463 -0.13899993896 -0.47599983215
          -0.15900039673 -0.47700023651 -0.18000030518 -0.47799968719 -0.20000076294 -0.47900009155
          -0.22100067139 -0.47999954224 -0.24200057983 -0.48099994659 0.2379989624 -0.46000003815
          0.21699905396 -0.45899963379 0.19699859619 -0.45800018311 0.17599868774 -0.45600032806
          0.15599822998 -0.45600032806 0.13600158691 -0.45499992371 0.11700057983 -0.45399999619
          0.09700012207 -0.45300006866 0.076999664307 -0.45300006866 0.057998657227 -0.45199990273
          0.039001464844 -0.45199990273 0.01900100708 -0.45200002193 0 -0.45199999213
          -0.01900100708 -0.45200002193 -0.039001464844 -0.45200002193 -0.057998657227 -0.45199990273
          -0.076999664307 -0.45300006866 -0.09700012207 -0.45300006866 -0.11700057983 -0.45399999619
          -0.13600158691 -0.45499992371 -0.15599822998 -0.45599985123 -0.17599868774 -0.45600032806
          -0.19699859619 -0.45800018311 -0.21699905396 -0.45899963379 -0.2379989624 -0.46000003815
          0.23400115967 -0.4390001297 0.21300125122 -0.43799972534 0.19300079346 -0.43700027466
          0.17300033569 -0.4359998703 0.15299987793 -0.43500041962 0.13399887085 -0.43400001526
          0.11399841309 -0.43300008774 0.095001220703 -0.43200016022 0.076000213623 -0.43200016022
          0.056999206543 -0.43099999428 0.037998199463 -0.43099999428 0.01900100708 -0.43099999428
          0 -0.43099999428 -0.01900100708 -0.43099999428 -0.037998199463 -0.43099999428
          -0.056999206543 -0.43099999428 -0.076000213623 -0.4319999218 -0.095001220703 -0.43200016022
          -0.11399841309 -0.43300008774 -0.13399887085 -0.43400001526 -0.15299987793 -0.43499994278
          -0.17300033569 -0.4359998703 -0.19300079346 -0.43700027466 -0.21300125122 -0.43799972534
          -0.23400115967 -0.4390001297 0.22900009155 -0.41899967194 0.20899963379 -0.41699981689
          0.18899917603 -0.41600036621 0.16999816895 -0.41499996185 0.15000152588 -0.4139995575
          0.1310005188 -0.41300010681 0.11199951172 -0.41200017929 0.092998504639 -0.41200017929
          0.074001312256 -0.41099977493 0.055999755859 -0.41100001335 0.036998748779 -0.41000008583
          0.01900100708 -0.40999996662 0 -0.40999999642 -0.01900100708 -0.41000002623
          -0.036998748779 -0.40999996662 -0.055999755859 -0.41100001335 -0.074001312256 -0.41100001335
          -0.092998504639 -0.41200017929 -0.11199951172 -0.41200017929 -0.1310005188 -0.41300010681
          -0.15000152588 -0.41400003433 -0.16999816895 -0.41499996185 -0.18899917603 -0.41600036621
          -0.20899963379 -0.41699981689 -0.22900009155 -0.41899967194 0.22399902344 -0.39900016785
          0.20500183105 -0.39700031281 0.18500137329 -0.39599990845 0.16600036621 -0.39500045776
          0.14699935913 -0.39400005341 0.12799835205 -0.39300012589 0.11000061035 -0.39200019836
          0.090999603271 -0.39099979401 0.073001861572 -0.39099979401 0.055000305176 -0.3900001049
          0.035999298096 -0.3900001049 0.018001556396 -0.38999998569 0 -0.38999998569
          -0.018001556396 -0.38999998569 -0.035999298096 -0.38999998569 -0.055000305176 -0.3900001049
          -0.073001861572 -0.39100003242 -0.090999603271 -0.39099979401 -0.11000061035 -0.39200019836
          -0.12799835205 -0.39300012589 -0.14699935913 -0.39400005341 -0.16600036621 -0.39500045776
          -0.18500137329 -0.39599990845 -0.20500183105 -0.39700031281 -0.22399902344 -0.39900016785
          0.21900177002 -0.37899971008 0.20000076294 -0.37699985504 0.18099975586 -0.37600040436
          0.16199874878 -0.375 0.14400100708 -0.37399959564 0.12599945068 -0.37300014496
          0.1069984436 -0.37200021744 0.089000701904 -0.37200021744 0.070999145508 -0.37099981308
          0.053001403809 -0.3710000515 0.035999298096 -0.36999988556 0.018001556396 -0.37000000477
          0 -0.37000000477 -0.018001556396 -0.37000000477 -0.035999298096 -0.37000000477
          -0.053001403809 -0.3710000515 -0.070999145508 -0.3710000515 -0.089000701904 -0.37200021744
          -0.1069984436 -0.37200021744 -0.12599945068 -0.37300014496 -0.14400100708 -0.37400007248
          -0.16199874878 -0.375 -0.18099975586 -0.37600040436 -0.20000076294 -0.37699985504
          -0.21900177002 -0.37899971008 0.2140007019 -0.35999965668 0.19599914551 -0.35799980164
          0.17699813843 -0.35700035095 0.15900039673 -0.35599994659 0.14099884033 -0.35499954224
          0.12300109863 -0.35400009155 0.10499954224 -0.35300016403 0.087001800537 -0.35200023651
          0.069999694824 -0.35200023651 0.051998138428 -0.35100007057 0.034999847412 -0.35100007057
          0.016998291016 -0.35099995136 0 -0.35100001097 -0.016998291016 -0.35100001097
          -0.034999847412 -0.35099995136 -0.051998138428 -0.35100007057 -0.069999694824 -0.35199999809
          -0.087001800537 -0.35200023651 -0.10499954224 -0.35300016403 -0.12300109863 -0.35400009155
          -0.14099884033 -0.35500001907 -0.15900039673 -0.35599994659 -0.17699813843 -0.35700035095
          -0.19599914551 -0.35799980164 -0.2140007019 -0.35999965668 0.20899963379 -0.34099960327
          0.19100189209 -0.33899974823 0.17300033569 -0.33800029755 0.1549987793 -0.33699989319
          0.1370010376 -0.3360004425 0.11999893188 -0.33500003815 0.10200119019 -0.33400011063
          0.084999084473 -0.33300018311 0.068000793457 -0.33199977875 0.050998687744 -0.33200001717
          0.034000396729 -0.33200001717 0.016998291016 -0.33099997044 0 -0.33100000024
          -0.016998291016 -0.33099997044 -0.034000396729 -0.33200001717 -0.050998687744 -0.33200001717
          -0.068000793457 -0.33200001717 -0.084999084473 -0.33300018311 -0.10200119019 -0.33400011063
          -0.11999893188 -0.33500003815 -0.1370010376 -0.33599996567 -0.1549987793 -0.33699989319
          -0.17300033569 -0.33800029755 -0.19100189209 -0.33899974823 -0.20899963379 -0.34099960327
          0.20399856567 -0.32199954987 0.18600082397 -0.32100009918 0.16899871826 -0.31900024414
          0.15100097656 -0.31799983978 0.13399887085 -0.3170003891 0.11700057983 -0.31599998474
          0.099998474121 -0.31500005722 0.083000183105 -0.3140001297 0.06600189209 -0.3140001297
          0.049999237061 -0.31299996376 0.033000946045 -0.31299996376 0.015998840332 -0.31299996376
          0 -0.31299999356 -0.015998840332 -0.31300002337 -0.033000946045 -0.31299996376
          -0.049999237061 -0.31299996376 -0.06600189209 -0.31399989128 -0.083000183105 -0.3140001297
          -0.099998474121 -0.31500005722 -0.11700057983 -0.31599998474 -0.13399887085 -0.31699991226
          -0.15100097656 -0.31799983978 -0.16899871826 -0.31900024414 -0.18600082397 -0.32100009918
          -0.20399856567 -0.32199954987 0.19900131226 -0.30399990082 0.18099975586 -0.30300045013
          0.16400146484 -0.30099964142 0.14699935913 -0.30000019073 0.13000106812 -0.29899978638
          0.11399841309 -0.29799985886 0.09700012207 -0.29699993134 0.081001281738 -0.29600000381
          0.063999176025 -0.29600000381 0.048000335693 -0.29500007629 0.032001495361 -0.29500007629
          0.015998840332 -0.29499995708 0 -0.29499998689 -0.015998840332 -0.29500001669
          -0.032001495361 -0.29499995708 -0.048000335693 -0.29500007629 -0.063999176025 -0.29600000381
          -0.081001281738 -0.29600000381 -0.09700012207 -0.29699993134 -0.11399841309 -0.29799985886
          -0.13000106812 -0.29899978638 -0.14699935913 -0.30000019073 -0.16400146484 -0.30099964142
          -0.18099975586 -0.30300045013 -0.19900131226 -0.30399990082 0.19300079346 -0.28699970245
          0.17599868774 -0.28499984741 0.15999984741 -0.28400039673 0.1430015564 -0.28199958801
          0.12699890137 -0.28100013733 0.11000061035 -0.28000020981 0.09400177002 -0.27899980545
          0.07799911499 -0.27799987793 0.062999725342 -0.27799987793 0.04700088501 -0.27699995041
          0.03099822998 -0.27699995041 0.015998840332 -0.27699995041 0 -0.27700001001
          -0.015998840332 -0.27700001001 -0.03099822998 -0.27699995041 -0.04700088501 -0.27699995041
          -0.062999725342 -0.27800011635 -0.07799911499 -0.27799987793 -0.09400177002 -0.27899980545
          -0.11000061035 -0.28000020981 -0.12699890137 -0.28100013733 -0.1430015564 -0.28199958801
          -0.15999984741 -0.28400039673 -0.17599868774 -0.28499984741 -0.19300079346 -0.28699970245
          0.18799972534 -0.27000045776 0.17100143433 -0.26799964905 0.1549987793 -0.26599979401
          0.13899993896 -0.26500034332 0.12300109863 -0.26399993896 0.1069984436 -0.26300001144
          0.091999053955 -0.26200008392 0.076000213623 -0.2610001564 0.061000823975 -0.2610001564
          0.046001434326 -0.25999999046 0.029998779297 -0.25999999046 0.014999389648 -0.25999999046
          0 -0.25900000334 -0.014999389648 -0.25999999046 -0.029998779297 -0.25999999046
          -0.046001434326 -0.25999999046 -0.061000823975 -0.26099991798 -0.076000213623 -0.2610001564
          -0.091999053955 -0.26200008392 -0.1069984436 -0.26300001144 -0.12300109863 -0.26399993896
          -0.13899993896 -0.26500034332 -0.1549987793 -0.26599979401 -0.17100143433 -0.26799964905
          -0.18799972534 -0.27000045776 0.18199920654 -0.2530002594 0.16600036621 -0.25100040436
          0.15000152588 -0.25 0.13499832153 -0.24800014496 0.1189994812 -0.2469997406
          0.10400009155 -0.24599981308 0.089000701904 -0.24499988556 0.074001312256 -0.24399995804
          0.05899810791 -0.24399995804 0.043998718262 -0.24300003052 0.028999328613 -0.24300003052
          0.014999389648 -0.24300003052 0 -0.24300000072 -0.014999389648 -0.24299997091
          -0.028999328613 -0.24300003052 -0.043998718262 -0.24300003052 -0.05899810791 -0.24399995804
          -0.074001312256 -0.24399995804 -0.089000701904 -0.24499988556 -0.10400009155 -0.24599981308
          -0.1189994812 -0.24700021744 -0.13499832153 -0.24800014496 -0.15000152588 -0.25
          -0.16600036621 -0.25100040436 -0.18199920654 -0.2530002594 0.17699813843 -0.23700046539
          0.1609992981 -0.23499965668 0.14599990845 -0.23400020599 0.13000106812 -0.23200035095
          0.11500167847 -0.23099994659 0.1010017395 -0.23000001907 0.085998535156 -0.22900009155
          0.070999145508 -0.22800016403 0.056999206543 -0.22700023651 0.042999267578 -0.22699999809
          0.02799987793 -0.22699999809 0.013999938965 -0.22599995136 0 -0.22599999607
          -0.013999938965 -0.22600001097 -0.02799987793 -0.22699999809 -0.042999267578 -0.22699999809
          -0.056999206543 -0.22699999809 -0.070999145508 -0.22800016403 -0.085998535156 -0.22900009155
          -0.1010017395 -0.23000001907 -0.11500167847 -0.23099994659 -0.13000106812 -0.23200035095
          -0.14599990845 -0.23400020599 -0.1609992981 -0.23499965668 -0.17699813843 -0.23700046539
          0.17100143433 -0.22099971771 0.15599822998 -0.21899986267 0.14099884033 -0.21800041199
          0.12599945068 -0.21599960327 0.11100006104 -0.21500015259 0.09700012207 -0.21400022507
          0.083000183105 -0.21299982071 0.069000244141 -0.21199989319 0.055000305176 -0.21199989319
          0.041000366211 -0.21099996567 0.027000427246 -0.21099996567 0.013999938965 -0.21000003815
          0 -0.20999999344 -0.013999938965 -0.20999997854 -0.027000427246 -0.21099996567
          -0.041000366211 -0.21099996567 -0.055000305176 -0.21199989319 -0.069000244141 -0.21199989319
          -0.083000183105 -0.21299982071 -0.09700012207 -0.21400022507 -0.11100006104 -0.21500015259
          -0.12599945068 -0.21599960327 -0.14099884033 -0.21800041199 -0.15599822998 -0.21899986267
          -0.17100143433 -0.22099971771 0.16500091553 -0.20600032806 0.15000152588 -0.20400047302
          0.13600158691 -0.20300006866 0.12099838257 -0.20100021362 0.1069984436 -0.19999980927
          0.09400177002 -0.19899988174 0.080001831055 -0.19799995422 0.06600189209 -0.1970000267
          0.053001403809 -0.19600009918 0.040000915527 -0.19600009918 0.026000976562 -0.19499993324
          0.013000488281 -0.19500005245 0 -0.19499999285 -0.013000488281 -0.19499999285
          -0.026000976562 -0.19500005245 -0.040000915527 -0.19600009918 -0.053001403809 -0.19600009918
          -0.06600189209 -0.1970000267 -0.080001831055 -0.19799995422 -0.09400177002 -0.19899988174
          -0.1069984436 -0.19999980927 -0.12099838257 -0.20100021362 -0.13600158691 -0.20300006866
          -0.15000152588 -0.20400047302 -0.16500091553 -0.20600032806 0.15900039673 -0.19099998474
          0.14400100708 -0.1890001297 0.1310005188 -0.18799972534 0.11700057983 -0.1859998703
          0.10300064087 -0.18500041962 0.090000152588 -0.18400001526 0.076999664307 -0.18300008774
          0.063999176025 -0.18200016022 0.050998687744 -0.1810002327 0.037998199463 -0.18099999428
          0.025001525879 -0.18000006676 0.013000488281 -0.17999994755 0 -0.18000000715
          -0.013000488281 -0.18000000715 -0.025001525879 -0.17999994755 -0.037998199463 -0.18099999428
          -0.050998687744 -0.18099999428 -0.063999176025 -0.18200016022 -0.076999664307 -0.18300008774
          -0.090000152588 -0.18400001526 -0.10300064087 -0.18499994278 -0.11700057983 -0.1859998703
          -0.1310005188 -0.18799972534 -0.14400100708 -0.1890001297 -0.15900039673 -0.19099998474
          0.15200042725 -0.17700004578 0.13899993896 -0.17500019073 0.125 -0.17399978638
          0.11199951172 -0.17199993134 0.098999023438 -0.17099952698 0.085998535156 -0.17000007629
          0.074001312256 -0.16900014877 0.061000823975 -0.16800022125 0.048999786377 -0.16699981689
          0.036998748779 -0.16599988937 0.023998260498 -0.16599988937 0.012001037598 -0.16600000858
          0 -0.16599999368 -0.012001037598 -0.16600000858 -0.023998260498 -0.16600000858
          -0.036998748779 -0.16599988937 -0.048999786377 -0.16700005531 -0.061000823975 -0.16800022125
          -0.074001312256 -0.16900014877 -0.085998535156 -0.17000007629 -0.098999023438 -0.17100000381
          -0.11199951172 -0.17199993134 -0.125 -0.17399978638 -0.13899993896 -0.17500019073
          -0.15200042725 -0.17700004578 0.14599990845 -0.16300010681 0.13299942017 -0.16199970245
          0.11999893188 -0.15999984741 0.1069984436 -0.15799999237 0.095001220703 -0.15699958801
          0.083000183105 -0.15600013733 0.070999145508 -0.15500020981 0.05899810791 -0.15399980545
          0.04700088501 -0.15299987793 0.034999847412 -0.15300011635 0.022998809814 -0.15199995041
          0.012001037598 -0.15199995041 0 -0.15199999511 -0.012001037598 -0.15200001001
          -0.022998809814 -0.15199995041 -0.034999847412 -0.15300011635 -0.04700088501 -0.15300011635
          -0.05899810791 -0.15399980545 -0.070999145508 -0.15500020981 -0.083000183105 -0.15600013733
          -0.095001220703 -0.15700006485 -0.1069984436 -0.15799999237 -0.11999893188 -0.15999984741
          -0.13299942017 -0.16199970245 -0.14599990845 -0.16300010681 0.13999938965 -0.14999961853
          0.12699890137 -0.14799976349 0.11500167847 -0.14700031281 0.10300064087 -0.14500045776
          0.090999603271 -0.14400005341 0.078998565674 -0.14300012589 0.067001342773 -0.14099979401
          0.055999755859 -0.14099979401 0.044998168945 -0.13999986649 0.033000946045 -0.13899993896
          0.021999359131 -0.13899993896 0.011001586914 -0.13900005817 0 -0.13899999857
          -0.011001586914 -0.13899999857 -0.021999359131 -0.13900005817 -0.033000946045 -0.13899993896
          -0.044998168945 -0.1400001049 -0.055999755859 -0.14099979401 -0.067001342773 -0.14099979401
          -0.078998565674 -0.14300012589 -0.090999603271 -0.14400005341 -0.10300064087 -0.14500045776
          -0.11500167847 -0.14700031281 -0.12699890137 -0.14799976349 -0.13999938965 -0.14999961853
          0.13299942017 -0.13799953461 0.12099838257 -0.13599967957 0.10900115967 -0.13399982452
          0.097999572754 -0.13199996948 0.085998535156 -0.13099956512 0.075000762939 -0.13000011444
          0.063999176025 -0.12900018692 0.053001403809 -0.12799978256 0.041999816895 -0.12699985504
          0.032001495361 -0.12599992752 0.020999908447 -0.12599992752 0.011001586914 -0.12600004673
          0 -0.12600000203 -0.011001586914 -0.12599998713 -0.020999908447 -0.12600004673
          -0.032001495361 -0.12599992752 -0.041999816895 -0.12700009346 -0.053001403809 -0.12799978256
          -0.063999176025 -0.12900018692 -0.075000762939 -0.13000011444 -0.085998535156 -0.13100004196
          -0.097999572754 -0.13199996948 -0.10900115967 -0.13399982452 -0.12099838257 -0.13599967957
          -0.13299942017 -0.13799953461 0.12599945068 -0.12600040436 0.11500167847 -0.12399959564
          0.10400009155 -0.1219997406 0.092998504639 -0.11999988556 0.082000732422 -0.11900043488
          0.070999145508 -0.11800003052 0.061000823975 -0.117000103 0.049999237061 -0.11600017548
          0.040000915527 -0.11499977112 0.029998779297 -0.11400008202 0.020000457764 -0.11400008202
          0.0099983215332 -0.11399996281 0 -0.11400000006 -0.0099983215332 -0.11400002241
          -0.020000457764 -0.11399996281 -0.029998779297 -0.11400008202 -0.040000915527 -0.11500000954
          -0.049999237061 -0.11600017548 -0.061000823975 -0.117000103 -0.070999145508 -0.11800003052
          -0.082000732422 -0.11899995804 -0.092998504639 -0.11999988556 -0.10400009155 -0.1219997406
          -0.11500167847 -0.12399959564 -0.12599945068 -0.12600040436 0.11999893188 -0.11400032043
          0.10900115967 -0.11200046539 0.097999572754 -0.10999965668 0.088001251221 -0.10900020599
          0.076999664307 -0.10700035095 0.067001342773 -0.10599994659 0.056999206543 -0.10500001907
          0.048000335693 -0.10400009155 0.037998199463 -0.10300016403 0.02799987793 -0.10299992561
          0.01900100708 -0.10199999809 0.0089988708496 -0.10199999809 0 -0.10199999809
          -0.0089988708496 -0.10199999809 -0.01900100708 -0.10199999809 -0.02799987793 -0.10299992561
          -0.037998199463 -0.10299992561 -0.048000335693 -0.10400009155 -0.056999206543 -0.10500001907
          -0.067001342773 -0.10599994659 -0.076999664307 -0.10699987411 -0.088001251221 -0.10900020599
          -0.097999572754 -0.10999965668 -0.10900115967 -0.11200046539 -0.11999893188 -0.11400032043
          0.1129989624 -0.10299968719 0.10200119019 -0.10099983215 0.091999053955 -0.098999977112
          0.082000732422 -0.097999572754 0.073001861572 -0.095999717712 0.062999725342 -0.094999790192
          0.054000854492 -0.093999862671 0.044998168945 -0.09299993515 0.035999298096 -0.092000007629
          0.027000427246 -0.092000007629 0.018001556396 -0.091000080109 0.0089988708496 -0.090999960899
          0 -0.090999998152 -0.0089988708496 -0.091000020504 -0.018001556396 -0.090999960899
          -0.027000427246 -0.092000007629 -0.035999298096 -0.092000007629 -0.044998168945 -0.09299993515
          -0.054000854492 -0.093999862671 -0.062999725342 -0.094999790192 -0.073001861572 -0.09600019455
          -0.082000732422 -0.097999572754 -0.091999053955 -0.098999977112 -0.10200119019 -0.10099983215
          -0.1129989624 -0.10299968719 0.10599899292 -0.093000411987 0.096000671387 -0.090999603271
          0.085998535156 -0.08899974823 0.076999664307 -0.086999893188 0.068000793457 -0.086000442505
          0.05899810791 -0.085000038147 0.049999237061 -0.083000183105 0.041999816895 -0.081999778748
          0.033000946045 -0.081999778748 0.025001525879 -0.081000089645 0.016998291016 -0.081000089645
          0.007999420166 -0.080000042915 0 -0.079999998212 -0.007999420166 -0.079999983311
          -0.016998291016 -0.080999970436 -0.025001525879 -0.081000089645 -0.033000946045 -0.082000017166
          -0.041999816895 -0.081999778748 -0.049999237061 -0.083000183105 -0.05899810791 -0.085000038147
          -0.068000793457 -0.085999965668 -0.076999664307 -0.086999893188 -0.085998535156 -0.08899974823
          -0.096000671387 -0.090999603271 -0.10599899292 -0.093000411987 0.097999572754 -0.083000183105
          0.089000701904 -0.081000328064 0.080001831055 -0.079000473022 0.071998596191 -0.078000068665
          0.062999725342 -0.076000213623 0.055000305176 -0.074999809265 0.04700088501 -0.073999881744
          0.039001464844 -0.072999954224 0.03099822998 -0.072000026703 0.022998809814 -0.071000099182
          0.014999389648 -0.071000099182 0.007999420166 -0.070000052452 0 -0.070000000298
          -0.007999420166 -0.069999992847 -0.014999389648 -0.070999979973 -0.022998809814 -0.071000099182
          -0.03099822998 -0.072000026703 -0.039001464844 -0.072999954224 -0.04700088501 -0.073999881744
          -0.055000305176 -0.074999809265 -0.062999725342 -0.076000213623 -0.071998596191 -0.078000068665
          -0.080001831055 -0.079000473022 -0.089000701904 -0.081000328064 -0.097999572754 -0.083000183105
          0.090999603271 -0.074000358582 0.083000183105 -0.071999549866 0.074001312256 -0.069999694824
          0.06600189209 -0.067999839783 0.057998657227 -0.067000389099 0.050998687744 -0.06500005722
          0.042999267578 -0.0640001297 0.035999298096 -0.063000202179 0.028999328613 -0.061999797821
          0.020999908447 -0.06200003624 0.013999938965 -0.061000108719 0.0069999694824 -0.06099998951
          0 -0.061000000685 -0.0069999694824 -0.06099998951 -0.013999938965 -0.06099998951
          -0.020999908447 -0.06200003624 -0.028999328613 -0.06200003624 -0.035999298096 -0.063000202179
          -0.042999267578 -0.0640001297 -0.050998687744 -0.06500005722 -0.057998657227 -0.066999912262
          -0.06600189209 -0.067999839783 -0.074001312256 -0.069999694824 -0.083000183105 -0.071999549866
          -0.090999603271 -0.074000358582 0.083999633789 -0.065999984741 0.075996398926 -0.0640001297
          0.068000793457 -0.062000274658 0.060997009277 -0.060000419617 0.054000854492 -0.057999610901
          0.045997619629 -0.057000160217 0.040000915527 -0.056000232697 0.032997131348 -0.054999828339
          0.026000976562 -0.053999900818 0.018997192383 -0.052999973297 0.013000488281 -0.052999973297
          0.0059967041016 -0.052000045776 0 -0.052000001073 -0.0059967041016 -0.051999986172
          -0.013000488281 -0.052999973297 -0.018997192383 -0.052999973297 -0.026000976562 -0.053999900818
          -0.032997131348 -0.054999828339 -0.040000915527 -0.056000232697 -0.045997619629 -0.057000160217
          -0.054000854492 -0.058000087738 -0.060997009277 -0.060000419617 -0.068000793457 -0.062000274658
          -0.075996398926 -0.0640001297 -0.083999633789 -0.065999984741 0.075996398926 -0.057999610901
          0.069000244141 -0.055999755859 0.061996459961 -0.053999900818 0.055000305176 -0.052000045776
          0.049003601074 -0.050000190735 0.041999816895 -0.048999786377 0.036003112793 -0.047999858856
          0.029998779297 -0.046999931335 0.024002075195 -0.046000003815 0.017997741699 -0.045000076294
          0.012001037598 -0.045000076294 0.0059967041016 -0.044000029564 0 -0.043999999762
          -0.0059967041016 -0.044000029564 -0.012001037598 -0.044999957085 -0.017997741699 -0.045000076294
          -0.024002075195 -0.046000003815 -0.029998779297 -0.046999931335 -0.036003112793 -0.047999858856
          -0.041999816895 -0.048999786377 -0.049003601074 -0.050000190735 -0.055000305176 -0.052000045776
          -0.061996459961 -0.053999900818 -0.069000244141 -0.055999755859 -0.075996398926 -0.057999610901
          0.069000244141 -0.050999641418 0.061996459961 -0.048000335693 0.055999755859 -0.045999526978
          0.049003601074 -0.043999671936 0.042999267578 -0.043000221252 0.03800201416 -0.040999889374
          0.031997680664 -0.039999961853 0.026000976562 -0.039000034332 0.021003723145 -0.038000106812
          0.015998840332 -0.038000106812 0.01000213623 -0.036999940872 0.004997253418 -0.036999940872
          0 -0.037000000477 -0.004997253418 -0.037000000477 -0.01000213623 -0.036999940872
          -0.015998840332 -0.038000106812 -0.021003723145 -0.038000106812 -0.026000976562 -0.039000034332
          -0.031997680664 -0.039999961853 -0.03800201416 -0.040999889374 -0.042999267578 -0.043000221252
          -0.049003601074 -0.043999671936 -0.055999755859 -0.045999526978 -0.061996459961 -0.048000335693
          -0.069000244141 -0.050999641418 0.060997009277 -0.043999671936 0.055000305176 -0.041999816895
          0.049003601074 -0.039999961853 0.043998718262 -0.038000106812 0.03800201416 -0.03600025177
          0.032997131348 -0.034999847412 0.02799987793 -0.032999992371 0.023002624512 -0.03200006485
          0.017997741699 -0.031000137329 0.013999938965 -0.030999898911 0.0090026855469 -0.02999997139
          0.004997253418 -0.02999997139 0 -0.029999999329 -0.004997253418 -0.02999997139
          -0.0090026855469 -0.02999997139 -0.013999938965 -0.030999898911 -0.017997741699 -0.030999898911
          -0.023002624512 -0.03200006485 -0.02799987793 -0.032999992371 -0.032997131348 -0.034999847412
          -0.03800201416 -0.035999774933 -0.043998718262 -0.038000106812 -0.049003601074 -0.039999961853
          -0.055000305176 -0.041999816895 -0.060997009277 -0.043999671936 0.053001403809 -0.038000106812
          0.047996520996 -0.03600025177 0.042999267578 -0.034000396729 0.03800201416 -0.031999588013
          0.032997131348 -0.029999732971 0.028999328613 -0.02899980545 0.024002075195 -0.026999950409
          0.019996643066 -0.026000022888 0.015998840332 -0.025000095367 0.012001037598 -0.025000095367
          0.0080032348633 -0.023999929428 0.0039978027344 -0.024000048637 0 -0.024000000209
          -0.0039978027344 -0.023999989033 -0.0080032348633 -0.024000048637 -0.012001037598 -0.025000095367
          -0.015998840332 -0.025000095367 -0.019996643066 -0.026000022888 -0.024002075195 -0.026999950409
          -0.028999328613 -0.02899980545 -0.032997131348 -0.030000209808 -0.03800201416 -0.031999588013
          -0.042999267578 -0.034000396729 -0.047996520996 -0.03600025177 -0.053001403809 -0.038000106812
          0.044998168945 -0.032999992371 0.041000366211 -0.029999732971 0.036003112793 -0.02799987793
          0.031997680664 -0.026000022888 0.02799987793 -0.02499961853 0.024002075195 -0.022999763489
          0.019996643066 -0.021999835968 0.016998291016 -0.020999908447 0.013000488281 -0.019999980927
          0.01000213623 -0.019000053406 0.0070037841797 -0.019000053406 0.0029983520508 -0.018000006676
          0 -0.017999999225 -0.0029983520508 -0.018000006676 -0.0070037841797 -0.019000053406
          -0.01000213623 -0.019000053406 -0.013000488281 -0.019999980927 -0.016998291016 -0.020999908447
          -0.019996643066 -0.021999835968 -0.024002075195 -0.022999763489 -0.02799987793 -0.025000095367
          -0.031997680664 -0.026000022888 -0.036003112793 -0.02799987793 -0.041000366211 -0.029999732971
          -0.044998168945 -0.032999992371 0.037002563477 -0.02799987793 0.032997131348 -0.026000022888
          0.028999328613 -0.022999763489 0.026000976562 -0.022000312805 0.022003173828 -0.020000457764
          0.018997192383 -0.018000125885 0.015998840332 -0.017000198364 0.013000488281 -0.015999794006
          0.011001586914 -0.014999866486 0.0080032348633 -0.013999938965 0.004997253418 -0.013999938965
          0.0029983520508 -0.013000011444 0 -0.013000000268 -0.0029983520508 -0.013000011444
          -0.004997253418 -0.014000058174 -0.0080032348633 -0.013999938965 -0.011001586914 -0.015000104904
          -0.013000488281 -0.015999794006 -0.015998840332 -0.017000198364 -0.018997192383 -0.018000125885
          -0.022003173828 -0.019999980927 -0.026000976562 -0.022000312805 -0.028999328613 -0.022999763489
          -0.032997131348 -0.026000022888 -0.037002563477 -0.02799987793 0.028999328613 -0.024000167847
          0.026000976562 -0.022000312805 0.023002624512 -0.019000053406 0.019996643066 -0.017000198364
          0.016998291016 -0.015999794006 0.013999938965 -0.013999938965 0.012001037598 -0.013000011444
          0.01000213623 -0.012000083923 0.0080032348633 -0.011000156403 0.0059967041016 -0.0099999904633
          0.0039978027344 -0.0099999904633 0.0019989013672 -0.0089999437332 0 -0.0089999996126
          -0.0019989013672 -0.0090000033379 -0.0039978027344 -0.0099999904633 -0.0059967041016 -0.0099999904633
          -0.0080032348633 -0.010999917984 -0.01000213623 -0.012000083923 -0.012001037598 -0.013000011444
          -0.013999938965 -0.013999938965 -0.016998291016 -0.015999794006 -0.019996643066 -0.017000198364
          -0.023002624512 -0.019000053406 -0.026000976562 -0.022000312805 -0.028999328613 -0.024000167847
          0.021003723145 -0.020999908447 0.017997741699 -0.017999649048 0.015998840332 -0.015999794006
          0.013000488281 -0.013999938965 0.011001586914 -0.012000083923 0.01000213623 -0.011000156403
          0.0080032348633 -0.0089998245239 0.0059967041016 -0.0079998970032 0.004997253418 -0.0069999694824
          0.0039978027344 -0.0069999694824 0.0019989013672 -0.0060000419617 0.00099945068359 -0.0060000419617
          0 -0.0060000000522 -0.00099945068359 -0.005999982357 -0.0019989013672 -0.0060000419617
          -0.0039978027344 -0.0069999694824 -0.004997253418 -0.0069999694824 -0.0059967041016 -0.0079998970032
          -0.0080032348633 -0.0089998245239 -0.01000213623 -0.011000156403 -0.011001586914 -0.012000083923
          -0.013000488281 -0.013999938965 -0.015998840332 -0.015999794006 -0.017997741699 -0.017999649048
          -0.021003723145 -0.020999908447 0.012001037598 -0.017999649048 0.01000213623 -0.015999794006
          0.0090026855469 -0.012999534607 0.0070037841797 -0.010999679565 0.0059967041016 -0.010000228882
          0.004997253418 -0.0079998970032 0.0039978027344 -0.0069999694824 0.0029983520508 -0.0060000419617
          0.0019989013672 -0.0050001144409 0.0019989013672 -0.0039999485016 0.00099945068359 -0.0030000209808
          0 -0.0030000209808 0 -0.0030000000261 0 -0.0030000209808
          -0.00099945068359 -0.0030000209808 -0.0019989013672 -0.0039999485016 -0.0019989013672 -0.0050001144409
          -0.0029983520508 -0.0060000419617 -0.0039978027344 -0.0069999694824 -0.004997253418 -0.0079998970032
          -0.0059967041016 -0.010000228882 -0.0070037841797 -0.010999679565 -0.0090026855469 -0.012999534607
          -0.01000213623 -0.015999794006 -0.012001037598 -0.017999649048 0.0039978027344 -0.015999794006
          0.0029983520508 -0.013999938965 0.0019989013672 -0.012000083923 0.00099945068359 -0.0089998245239
          0 -0.0080003738403 0 -0.0060000419617 -0.00099945068359 -0.0050001144409
          -0.00099945068359 -0.0029997825623 -0.00099945068359 -0.0019998550415 -0.00099945068359 -0.0020000934601
          0 -0.00099992752075 0 -0.00100004673 0 -0.0010000000475
          0 -0.0009999871254 0 -0.00100004673 0.00099945068359 -0.0020000934601
          0.00099945068359 -0.0020000934601 0.00099945068359 -0.0029997825623 0.00099945068359 -0.0050001144409
          0 -0.0060000419617 0 -0.0079998970032 -0.00099945068359 -0.0089998245239
          -0.0019989013672 -0.012000083923 -0.0029983520508 -0.013999938965 -0.0039978027344 -0.015999794006
        </DataArray>
        <DataArray type="Int32" Name="Neighbors" format="ascii" RangeMin="25" RangeMax="80">
          25 30 35 40 44 45
          45 45 45 45 45 45
          45 45 45 45 45 45
          45 45 44 40 35 30
          25 30 36 42 48 53
          54 54 54 54 54 54
          54 54 54 54 54 54
          54 54 54 53 48 42
          36 30 35 42 49 56
          62 63 63 63 63 63
          63 63 63 63 63 63
          63 63 63 63 62 56
          49 42 35 40 48 56
          64 71 72 72 72 72
          72 72 72 72 72 72
          72 72 72 72 72 71
          64 56 48 40 44 53
          62 71 78 79 79 79
          79 79 79 79 79 79
          79 79 79 79 79 79
          78 71 62 53 44 45
          54 63 72 79 80 80
          80 80 80 80 80 80
          80 80 80 80 80 80
          80 79 72 63 54 45
          45 54 63 72 79 80
          80 80 80 80 80 80
          80 80 80 80 80 80
          80 80 79 72 63 54
          45 45 54 63 72 79
          80 80 80 80 80 80
          80 80 80 80 80 80
          80 80 80 79 72 63
          54 45 45 54 63 72
          79 80 80 80 80 80
          80 80 80 80 80 80
          80 80 80 80 79 72
          63 54 45 45 54 63
          72 79 80 80 80 80
          80 80 80 80 80 80
          80 80 80 80 80 79
          72 63 54 45 45 54
          63 72 79 80 80 80
          80 80 80 80 80 80
          80 80 80 80 80 80
          79 72 63 54 45 45
          54 63 72 79 80 80
          80 80 80 80 80 80
          80 80 80 80 80 80
          80 79 72 63 54 45
          45 54 63 72 79 80
          80 80 80 80 80 80
          80 80 80 80 80 80
          80 80 79 72 63 54
          45 45 54 63 72 79
          80 80 80 80 80 80
          80 80 80 80 80 80
          80 80 80 79 72 63
          54 45 45 54 63 72
          79 80 80 80 80 80
          80 80 80 80 80 80
          80 80 80 80 79 72
          63 54 45 45 54 63
          72 79 80 80 80 80
          80 80 80 80 80 80
          80 80 80 80 80 79
          72 63 54 45 45 54
          63 72 79 80 80 80
          80 80 80 80 80 80
          80 80 80 80 80 80
          79 72 63 54 45 45
          54 63 72 79 80 80
          80 80 80 80 80 80
          80 80 80 80 80 80
          80 79 72 63 54 45
          45 54 63 72 79 80
          80 80 80 80 80 80
          80 80 80 80 80 80
          80 80 79 72 63 54
          45 45 54 63 72 79
          80 80 80 80 80 80
          80 80 80 80 80 80
          80 80 80 79 72 63
          54 45 45 54 63 72
          79 80 80 80 80 80
          80 80 80 80 80 80
          80 80 80 80 79 72
          63 54 45 45 54 63
          72 79 80 80 80 80
          80 80 80 80 80 80
          80 80 80 80 80 79
          72 63 54 45 45 54
          63 72 79 80 80 80
          80 80 80 80 80 80
          80 80 80 80 80 80
          79 72 63 54 45 45
          54 63 72 79 80 80
          80 80 80 80 80 80
          80 80 80 80 80 80
          80 79 72 63 54 45
          45 54 63 72 79 80
          80 80 80 80 80 80
          80 80 80 80 80 80
          80 80 79 72 63 54
          45 45 54 63 72 79
          80 80 80 80 80 80
          80 80 80 80 80 80
          80 80 80 79 72 63
          54 45 45 54 63 72
          79 80 80 80 80 80
          80 80 80 80 80 80
          80 80 80 80 79 72
          63 54 45 45 54 63
          72 79 80 80 80 80
          80 80 80 80 80 80
          80 80 80 80 80 79
          72 63 54 45 45 54
          63 72 79 80 80 80
          80 80 80 80 80 80
          80 80 80 80 80 80
          79 72 63 54 45 45
          54 63 72 79 80 80
          80 80 80 80 80 80
          80 80 80 80 80 80
          80 79 72 63 54 45
          45 54 63 72 79 80
          80 80 80 80 80 80
          80 80 80 80 80 80
          80 80 79 72 63 54
          45 45 54 63 72 79
          80 80 80 80 80 80
          80 80 80 80 80 80
          80 80 80 79 72 63
          54 45 45 54 63 72
          79 80 80 80 80 80
          80 80 80 80 80 80
          80 80 80 80 79 72
          63 54 45 45 54 63
          72 79 80 80 80 80
          80 80 80 80 80 80
          80 80 80 80 80 79
          72 63 54 45 45 54
          63 72 79 80 80 80
          80 80 80 80 80 80
          80 80 80 80 80 80
          79 72 63 54 45 45
          54 63 72 79 80 80
          80 80 80 80 80 80
          80 80 80 80 80 80
          80 79 72 63 54 45
          45 54 63 72 79 80
          80 80 80 80 80 80
          80 80 80 80 80 80
          80 80 79 72 63 54
          45 45 54 63 72 79
          80 80 80 80 80 80
          80 80 80 80 80 80
          80 80 80 79 72 63
          54 45 45 54 63 72
          79 80 80 80 80 80
          80 80 80 80 80 80
          80 80 80 80 79 72
          63 54 45 45 54 63
          72 79 80 80 80 80
          80 80 80 80 80 80
          80 80 80 80 80 79
          72 63 54 45 45 54
          63 72 79 80 80 80
          80 80 80 80 80 80
          80 80 80 80 80 80
          79 72 63 54 45 45
          54 63 72 79 80 80
          80 80 80 80 80 80
          80 80 80 80 80 80
          80 79 72 63 54 45
          45 54 63 72 79 80
          80 80 80 80 80 80
          80 80 80 80 80 80
          80 80 79 72 63 54
          45 45 54 63 72 79
          80 80 80 80 80 80
          80 80 80 80 80 80
          80 80 80 79 72 63
          54 45 45 54 63 72
          79 80 80 80 80 80
          80 80 80 80 80 80
          80 80 80 80 79 72
          63 54 45 45 54 63
          72 79 80 80 80 80
          80 80 80 80 80 80
          80 80 80 80 80 79
          72 63 54 45 45 54
          63 72 79 80 80 80
          80 80 80 80 80 80
          80 80 80 80 80 80
          79 72 63 54 45 45
          54 63 72 79 80 80
          80 80 80 80 80 80
          80 80 80 80 80 80
          80 79 72 63 54 45
          45 54 63 72 79 80
          80 80 80 80 80 80
          80 80 80 80 80 80
          80 80 79 72 63 54
          45 45 54 63 72 79
          80 80 80 80 80 80
          80 80 80 80 80 80
          80 80 80 79 72 63
          54 45 45 54 63 72
          79 80 80 80 80 80
          80 80 80 80 80 80
          80 80 80 80 79 72
          63 54 45 45 54 63
          72 79 80 80 80 80
          80 80 80 80 80 80
          80 80 80 80 80 79
          72 63 54 45 45 54
          63 72 79 80 80 80
          80 80 80 80 80 80
          80 80 80 80 80 80
          79 72 63 54 45 45
          54 63 72 79 80 80
          80 80 80 80 80 80
          80 80 80 80 80 80
          80 79 72 63 54 45
          45 54 63 72 79 80
          80 80 80 80 80 80
          80 80 80 80 80 80
          80 80 79 72 63 54
          45 45 54 63 72 79
          80 80 80 80 80 80
          80 80 80 80 80 80
          80 80 80 79 72 63
          54 45 45 54 63 72
          79 80 80 80 80 80
          80 80 80 80 80 80
          80 80 80 80 79 72
          63 54 45 45 54 63
          72 79 80 80 80 80
          80 80 80 80 80 80
          80 80 80 80 80 79
          72 63 54 45 45 54
          63 72 79 80 80 80
          80 80 80 80 80 80
          80 80 80 80 80 80
          79 72 63 54 45 45
          54 63 72 79 80 80
          80 80 80 80 80 80
          80 80 80 80 80 80
          80 79 72 63 54 45
          45 54 63 72 79 80
          80 80 80 80 80 80
          80 80 80 80 80 80
          80 80 79 72 63 54
          45 45 54 63 72 79
          80 80 80 80 80 80
          80 80 80 80 80 80
          80 80 80 79 72 63
          54 45 45 54 63 72
          79 80 80 80 80 80
          80 80 80 80 80 80
          80 80 80 80 79 72
          63 54 45 45 54 63
          72 79 80 80 80 80
          80 80 80 80 80 80
          80 80 80 80 80 79
          72 63 54 45 45 54
          63 72 79 80 80 80
          80 80 80 80 80 80
          80 80 80 80 80 80
          79 72 63 54 45 45
          54 63 72 79 80 80
          80 80 80 80 80 80
          80 80 80 80 80 80
          80 79 72 63 54 45
          45 54 63 72 79 80
          80 80 80 80 80 80
          80 80 80 80 80 80
          80 80 79 72 63 54
          45 45 54 63 72 79
          80 80 80 80 80 80
          80 80 80 80 80 80
          80 80 80 79 72 63
          54 45 45 54 63 72
          79 80 80 80 80 80
          80 80 80 80 80 80
          80 80 80 80 79 72
          63 54 45 45 54 63
          72 79 80 80 80 80
          80 80 80 80 80 80
          80 80 80 80 80 79
          72 63 54 45 44 53
          62 71 78 79 79 79
          79 79 79 79 79 79
          79 79 79 79 79 79
          78 71 62 53 44 40
          48 56 64 71 72 72
          72 72 72 72 72 72
          72 72 72 72 72 72
          72 71 64 56 48 40
          35 42 49 56 62 63
          63 63 63 63 63 63
          63 63 63 63 63 63
          63 63 62 56 49 42
          35 30 36 42 48 53
          54 54 54 54 54 54
          54 54 54 54 54 54
          54 54 54 53 48 42
          36 30 25 30 35 40
          44 45 45 45 45 45
          45 45 45 45 45 45
          45 45 45 45 44 40
          35 30 25
        </DataArray>
        <DataArray type="Float64" Name="Strain_Energy" format="ascii" RangeMin="0.00076949704907" RangeMax="0.1788405684">
          0.001863966677 0.0015322402012 0.0020802925926 0.0028623184766 0.0027031860158 0.0029558894988
          0.0034628020634 0.0032570270895 0.0037827054116 0.0044509573389 0.0042513329126 0.0049230337179
          0.0046215132252 0.0042348376266 0.0044898064378 0.0038986507393 0.0039840842449 0.0039485382926
          0.002786426424 0.0024203347251 0.0020000974843 0.0014565870293 0.001599636401 0.0017892116853
          0.00077294675529 0.0017573521788 0.0023295766984 0.0020871579721 0.0026999894083 0.0026925135057
          0.003055419281 0.0036119057531 0.0037302443635 0.0041777235859 0.0047593617309 0.0046913351459
          0.0052637004744 0.0050571768519 0.0048067154198 0.0049788452626 0.0044473311915 0.0044777287933
          0.0044537476666 0.0034299432414 0.0030571757302 0.0026000017225 0.0021389952186 0.0021639483736
          0.001357797683 0.001217869256 0.0016485254088 0.0020254207125 0.0021369373389 0.0025337076463
          0.0024745295856 0.0028788749566 0.0034243161873 0.0039375208788 0.003882485129 0.0043719856911
          0.0044834251947 0.0050186008195 0.0050479791277 0.004835001916 0.0047819435815 0.0043694432504
          0.0042629052225 0.0038549095177 0.003573892584 0.003243148338 0.0028869146581 0.0028311374399
          0.0028378327057 0.0019843892197 0.0017913866628 0.0016031855401 0.00099538314533 0.0014726619004
          0.0018680718778 0.0024335801453 0.0029104419678 0.0034161342539 0.0038773563542 0.0040618389391
          0.0044967190108 0.004799775455 0.0052647312722 0.0054463787502 0.0052682762677 0.0051040466841
          0.0047760773371 0.004535934638 0.0042206694666 0.0039630335557 0.0036480778731 0.0033267116799
          0.0031812590608 0.0031519345206 0.0032549823829 0.0023726722188 0.0015405563551 0.00098322541398
          0.0012497295499 0.0018273896993 0.002390587547 0.0028709973058 0.003274595401 0.0036603584405
          0.0040590083488 0.0044130385323 0.0048813199859 0.0052614916673 0.0054859121114 0.0054214390733
          0.0052140057479 0.0048735332093 0.0046362333393 0.0043009993369 0.0040394136373 0.0038585130394
          0.0036122410379 0.003514424392 0.0035130226356 0.0037772743464 0.0027903745489 0.00076949704907
          0.00085907666916 0.0013637011183 0.0017667880972 0.0022601090071 0.0027508576961 0.0032841669471
          0.0036051380867 0.0040939904222 0.0044231674106 0.004867352489 0.0051189964798 0.0052803459379
          0.0053083157369 0.0052790466196 0.0049933531225 0.0048000992727 0.0044549425542 0.0043120064192
          0.0040167312312 0.0037572481649 0.0037822629039 0.0040360794642 0.0040777254567 0.0042172819432
          0.00091444622387 0.0010795934061 0.0013567184905 0.0018443133284 0.002275796492 0.0027021747592
          0.0031282826963 0.0035929324347 0.0039826831255 0.0043735078996 0.0046806026319 0.0048358457679
          0.0049683581327 0.0050920353034 0.0051991641978 0.0050188195387 0.0047652961662 0.0045663544754
          0.0043282993541 0.0042061633929 0.0040681321965 0.0042353171658 0.0044596899967 0.0047789495859
          0.0048468061767 0.0019139287 0.0012191872127 0.001610707754 0.0019305754541 0.0023094094235
          0.0027668152275 0.0031029102221 0.0035534622623 0.0039507667811 0.0043795198454 0.0045401111792
          0.0046958272232 0.0048369589657 0.005006994518 0.0051557485004 0.0050939932237 0.0048331792572
          0.0046835281982 0.0045208186541 0.0044918158974 0.0043781773293 0.0046831288002 0.0051471986539
          0.0054228303313 0.0046130566337 0.002189850572 0.001637579666 0.0020130540292 0.002196134736
          0.0024453724496 0.0027749716372 0.003177072965 0.0035942203466 0.0040318430689 0.0042275308973
          0.0043479411691 0.0046023681763 0.0048244054768 0.004957980677 0.0050349984718 0.0050324126069
          0.0050539499539 0.0048666627225 0.0047363344597 0.0046793292944 0.0047644183401 0.0053252231461
          0.0060745647878 0.0065182047951 0.0056922956686 0.002332194745 0.0025807385809 0.0021239241099
          0.0023100342912 0.0025111432723 0.0028204075631 0.003299103492 0.003681413319 0.0039550416316
          0.0041339859164 0.0042875758081 0.0045909556918 0.0047864060375 0.0049801407023 0.0050363805268
          0.0050848560343 0.0051487933664 0.00511663449 0.0050211251318 0.0049621834962 0.0050453649228
          0.0057573059731 0.0066624005542 0.0069246489635 0.006675522062 0.0025998883547 0.0028126512951
          0.0029557395321 0.002581000358 0.0026543442846 0.0029986397142 0.0032954073493 0.0036544930009
          0.0038819922835 0.0040346466161 0.0042842932619 0.004624232108 0.0048253160125 0.0050353965437
          0.0050881399925 0.0051579194952 0.0052875072507 0.0053318245707 0.0053392472664 0.0054218941115
          0.0055578961077 0.0065268943876 0.0075100972373 0.008030074966 0.008030525055 0.0034728226161
          0.0031641869132 0.0030538123232 0.0029950214766 0.0028946308165 0.0030415956976 0.0033611791294
          0.0036763497226 0.0039896241364 0.0041483418799 0.0043519814763 0.0045534985272 0.0047908855202
          0.0049929629684 0.005167849496 0.0053952611854 0.0055593150121 0.0055939281537 0.0056174152283
          0.0057045801882 0.0060835514188 0.0071335828154 0.008319981323 0.0093211347971 0.0083939562861
          0.003900354484 0.0041042684127 0.0033938015491 0.00307838711 0.0030565138145 0.0031522885896
          0.0033078369862 0.0035340143222 0.0038141480718 0.0041042411545 0.0044257059583 0.004687771269
          0.0049205132809 0.0051189862397 0.0053109242452 0.0054039343317 0.00549304293 0.0055900628402
          0.0057604874861 0.0060688039868 0.0064890668299 0.007654909711 0.0093808396854 0.010064157729
          0.010066020382 0.0047348994167 0.0043722552599 0.0040151526804 0.0037018660921 0.0032946846779
          0.0032294592953 0.0034366545625 0.0037012351282 0.0039392066467 0.0041804127913 0.0044238612485
          0.0047687291304 0.0049297638482 0.0051537821625 0.0052840144569 0.0054835659939 0.0056958481114
          0.0058547560144 0.0060260496188 0.0063158416695 0.0069871295794 0.008421714882 0.010033616597
          0.011508765169 0.010836419663 0.0054846726953 0.0052470981066 0.0046214043748 0.0038202619211
          0.0034457915543 0.0035082318661 0.0036342172881 0.0038700441489 0.0040561735502 0.0043651835333
          0.0045774874184 0.0049282787429 0.0050307197027 0.0053369917132 0.0054636215404 0.0057781742072
          0.0059051591337 0.0061844877311 0.0064334076979 0.0068117646211 0.0072881786297 0.0089416775193
          0.010616925125 0.0122640389 0.01143273583 0.0058087085684 0.0058048016362 0.0053890295193
          0.0041143950336 0.0037654070606 0.0037501900411 0.0038878424006 0.0040748635129 0.0043293782845
          0.0045186759809 0.0047078108187 0.0047904459505 0.0049272315714 0.0052207353282 0.0055865176858
          0.0059408320645 0.0062559236286 0.006511851365 0.0068155021391 0.0072215284288 0.0077789727287
          0.009405216694 0.011542466859 0.012967497131 0.013551678046 0.0071336718077 0.0067182087992
          0.0059027245325 0.0045703936275 0.0041344696882 0.0040345751136 0.0042713700298 0.0042574977687
          0.0045386522297 0.0045383462474 0.0045628317556 0.0046758561836 0.0048796939733 0.0051245027505
          0.0055708547204 0.006073483695 0.0065566302808 0.0068554925332 0.0073411298565 0.0076482885801
          0.0083360896937 0.010103856231 0.012412619764 0.014275374908 0.013663011974 0.0083265504397
          0.0077031019152 0.0064633858 0.0049938298964 0.004528888752 0.0043050732417 0.0043661085348
          0.0042698950358 0.0043946284087 0.0043703657759 0.0045131977366 0.0046750551143 0.004912226955
          0.0051362724889 0.0055293727825 0.0059664408444 0.0065194680089 0.0069673128123 0.007543998017
          0.0080680107529 0.0089270587483 0.010855104151 0.013437153986 0.015862643502 0.015609999497
          0.0092788864315 0.009224098702 0.0070898911803 0.0054871142752 0.0047388223504 0.0045948386838
          0.0045215625961 0.0042359880391 0.004205110211 0.0043571503167 0.0046381366891 0.0048062967214
          0.0049530968869 0.0052723395734 0.005665203687 0.0060465189376 0.0064587979797 0.0070772993877
          0.0079093601642 0.0085176565758 0.0093658301502 0.011637378552 0.014557098076 0.016999418776
          0.017520064625 0.01093491456 0.010118736325 0.0077927673085 0.0062323357823 0.0053980327004
          0.0049303344783 0.0045588193918 0.0043718947077 0.0043134837618 0.0043047687255 0.00453979411
          0.0048856296819 0.0050373803201 0.005374407586 0.005645150615 0.0059905981847 0.0066189288733
          0.0073656663032 0.0081461012646 0.0090928252798 0.010229059634 0.012589365542 0.016012568407
          0.018938690681 0.018895322009 0.011919244436 0.011371399804 0.008796317474 0.0072446120737
          0.0059031620709 0.0053294888158 0.0047634531694 0.0045932382693 0.0044797077352 0.0045087480027
          0.0045720987154 0.004662432891 0.0048382909031 0.0052330195734 0.0056756089074 0.00626060123
          0.0068724676599 0.0076637342843 0.0084770023631 0.0096926101128 0.010990442833 0.013850636737
          0.017100117533 0.020215443964 0.021259567494 0.013146379638 0.012565508535 0.010034922201
          0.0077702082301 0.0065095120724 0.005732298176 0.0050152172882 0.0048188306176 0.0046253849775
          0.0046003495161 0.0045054281373 0.0044695756083 0.00461949616 0.0050616833017 0.0057490389392
          0.0063707079169 0.0070908562152 0.0079284544455 0.0088437858703 0.01016025637 0.011704689264
          0.014751145118 0.018633213155 0.021654647331 0.022712363646 0.014999597933 0.013938933983
          0.01121779184 0.0089884767706 0.0070015347268 0.0060933103614 0.0052556552875 0.0048877536017
          0.0047379608949 0.0045485152417 0.0044172497398 0.0044530695572 0.0046155090663 0.0050693831597
          0.0056834300819 0.0064335480666 0.0072255421773 0.0080533785913 0.0090964169563 0.010637498325
          0.012357186726 0.015983740584 0.020178403642 0.023539791107 0.023697350861 0.01588145557
          0.01502223998 0.012152178336 0.0095470483757 0.0075297044424 0.0064748219616 0.0054749254321
          0.0048858048293 0.0047956145142 0.0046389282401 0.0045461294279 0.0045177468639 0.0046475618599
          0.0051493340259 0.0058573060603 0.006594449072 0.0073664456805 0.0081563694304 0.0094412909977
          0.011098677964 0.012994988597 0.016746445591 0.021464207404 0.025123509873 0.025309161517
          0.017511805272 0.0165087003 0.013514796063 0.010383214667 0.0082569359564 0.0068376948613
          0.0057857709209 0.0050914099532 0.00476490093 0.0046839936562 0.0045777318765 0.0047426404933
          0.0047238635011 0.005354982251 0.0058805206519 0.0065666589062 0.007416728052 0.0084184675481
          0.009876474953 0.011613349534 0.01390871543 0.017854822319 0.022742102988 0.02640084948
          0.026556947391 0.018890949843 0.018519193104 0.015038650143 0.011483015818 0.0089761387355
          0.0073967348347 0.0061871539874 0.0053472229216 0.0050498023756 0.0047335159172 0.0045523176478
          0.0044724085386 0.0046037402392 0.0051151843406 0.0058184823803 0.0066632037936 0.0077274113515
          0.0087689718495 0.010297626495 0.012316405824 0.014790364282 0.019154417153 0.024352555847
          0.028450744715 0.029318392916 0.020831712109 0.02037578986 0.016425466937 0.012276601084
          0.0096056093638 0.0078709532106 0.0064402713157 0.0055888079148 0.005211192769 0.0047916024018
          0.0044901720591 0.0043191226761 0.004505791518 0.0049460270944 0.0057986777226 0.0068056814758
          0.0079193718004 0.0090075814255 0.010598308408 0.012774361033 0.015490671785 0.020080907272
          0.025976227551 0.030553299847 0.031580991333 0.0227209122 0.021738062504 0.017522303415
          0.013029986881 0.010143089077 0.008333514536 0.0071056299927 0.0058092499468 0.0051890932448
          0.0049262884968 0.0045694709649 0.0043734711675 0.0044972659529 0.0049863111029 0.0058469809892
          0.0069597775155 0.0079432186156 0.0092991866127 0.011277330787 0.013268094346 0.016057448442
          0.020938843531 0.02732197014 0.032396352992 0.032727242176 0.024718959965 0.023044733875
          0.018818411483 0.014008790736 0.010630551428 0.0088818086779 0.0072268924891 0.0061154121762
          0.0052691625462 0.0048825366052 0.0046126137641 0.0046605272406 0.0047067534486 0.0052674249859
          0.0059462246803 0.0069141955682 0.0080513827988 0.0096094759237 0.0114700946 0.013897102004
          0.016604821616 0.021939969354 0.028495533397 0.034354288997 0.035695821042 0.02679848915
          0.025018592763 0.019602590689 0.01498465811 0.011239958082 0.0093745211896 0.0077331576611
          0.0063304265687 0.0054470935348 0.0050410268563 0.0048613655907 0.0045537646899 0.0046233494551
          0.00525049272 0.0061812500797 0.0071132454575 0.0082610602644 0.009855913242 0.012062895369
          0.014451900994 0.01722752174 0.022906354417 0.029842304655 0.036310901388 0.037652719482
          0.028694720519 0.027004063737 0.021280937574 0.016079116269 0.012196671035 0.010029379502
          0.0083213427103 0.0067884517976 0.0056362409706 0.0051024462618 0.0047114606462 0.0045232734462
          0.0046690202782 0.005234128188 0.0061033567471 0.0072343287377 0.008513035114 0.010429506545
          0.01267894256 0.01519418362 0.018243331228 0.024151015657 0.031684606935 0.038489343106
          0.039873164433 0.03087198178 0.029522995039 0.023726698033 0.017520013193 0.013309612081
          0.010906373013 0.0087857470043 0.007247995092 0.0059042342239 0.0051225970989 0.0047996978272
          0.0045361168494 0.0046753485042 0.0052481653743 0.006278745139 0.0073362029139 0.0088507136221
          0.010879833116 0.013168607891 0.016115324335 0.019473718845 0.025683408026 0.033900207832
          0.040610250005 0.041469862022 0.032655696399 0.031471231119 0.025638129398 0.01909684067
          0.014547204173 0.011830506038 0.0095393839074 0.0075936250998 0.0062645710988 0.0052145173731
          0.0046924749139 0.0044874182938 0.0046721774413 0.0052527514608 0.0061620091874 0.0074462637154
          0.0092303025478 0.011314516008 0.013994096017 0.016997531889 0.020665297443 0.027217038859
          0.035684933658 0.042368247988 0.043088925597 0.034951892105 0.033857523803 0.027495841073
          0.020729287199 0.01573232182 0.012829420042 0.010134686611 0.0080169503975 0.006476191385
          0.005295482179 0.0046854351046 0.004491496602 0.0046741196721 0.0052284754669 0.0061530663829
          0.0075211953085 0.0094839293799 0.011716586899 0.014592479301 0.01800356588 0.02188151247
          0.028882807239 0.037567463234 0.044838359835 0.045494562004 0.037549915411 0.035844303345
          0.029116417155 0.021886048306 0.016964806868 0.013636117485 0.010736725763 0.0083587958045
          0.0066633605053 0.0055445910983 0.0048927406137 0.0045326531928 0.0046836722182 0.0052258170726
          0.006380859761 0.0077681199206 0.0096211253222 0.012091404341 0.015243090457 0.01887384864
          0.023078288278 0.030136495559 0.039351177853 0.047214516264 0.048570183405 0.040390258375
          0.038545975618 0.031344010468 0.023340361347 0.017871827934 0.014287881971 0.01126827048
          0.0089023468681 0.0070240708328 0.0057635032906 0.0050680858186 0.0046327601702 0.0047075919331
          0.0053531807019 0.0064883578637 0.0079654131102 0.0099357721771 0.012610325716 0.015740707728
          0.019502015948 0.024029287989 0.031536104227 0.041499259643 0.04969196739 0.051185577358
          0.043160881559 0.041048437578 0.032517094832 0.024367153427 0.018682113333 0.015030331117
          0.011761541944 0.009427218836 0.0073050795011 0.0059682331157 0.005021360043 0.0045823279651
          0.0046462392084 0.005281653573 0.0064409515961 0.0080942945992 0.010215345968 0.013070170239
          0.016193447815 0.020269395708 0.024847460822 0.032700614644 0.043072845494 0.052211439477
          0.054019595006 0.045856694273 0.043023074019 0.034636577781 0.026056079694 0.019632112972
          0.015651218218 0.012420140786 0.0097031726062 0.0075762332182 0.0059132524949 0.0050191255534
          0.0047135879829 0.004683985606 0.005351304875 0.0064311487997 0.0080083538474 0.010381745651
          0.013277685967 0.016776386194 0.020814454525 0.025782115591 0.034205769312 0.044850926156
          0.054369633677 0.056894024987 0.048236511643 0.045759025539 0.037391997007 0.027505987541
          0.02077629529 0.016587044964 0.013106924486 0.010188816381 0.0078641057814 0.0060015980579
          0.0049652065323 0.0045278194227 0.0045486892437 0.0052098695414 0.006269776656 0.0080493873063
          0.010677018489 0.013752875469 0.017410500617 0.021735556518 0.026855079126 0.035739105181
          0.047356647042 0.056815335508 0.058988786912 0.050775542912 0.047979820889 0.039046740383
          0.029033403997 0.021732921962 0.017135748832 0.013556815535 0.010508971423 0.0080474986114
          0.0060703277196 0.0048390068337 0.0044002367575 0.0044800005731 0.0050546654331 0.0061715499354
          0.0081082073249 0.01079839345 0.014004189017 0.017832104848 0.022117917113 0.027692620564
          0.036911967833 0.048862111246 0.058914338998 0.061542505826 0.053612884494 0.050610219623
          0.040752522792 0.030388517298 0.022515972366 0.017765949102 0.013916009411 0.010806018784
          0.0082537866426 0.0062338876339 0.0049180390759 0.0043320063054 0.0042853755936 0.0049439684175
          0.0062782446912 0.0082489257438 0.011011395454 0.014234206913 0.018051802957 0.022687527708
          0.028374901072 0.038162385582 0.050610544218 0.061682595232 0.063689721653 0.056453509821
          0.053480801274 0.043125216944 0.031834684244 0.023436640499 0.018272088805 0.014385870148
          0.011131617415 0.008430825189 0.0065178848547 0.0049918323706 0.0042413532528 0.004201515319
          0.0049104640279 0.0063650793444 0.008510351377 0.011093308736 0.014490548272 0.018417052477
          0.023122218235 0.029175361269 0.039531072975 0.052795734812 0.064319766986 0.066260752372
          0.060088955825 0.056633468899 0.045335611214 0.033652777558 0.024689468504 0.019380370612
          0.015025378037 0.011576402456 0.0087159496296 0.0067276449582 0.0052665956393 0.0044058443569
          0.0042994012407 0.0050691122812 0.0065910117271 0.0087627525695 0.011376529833 0.014886650816
          0.019035492519 0.024106051173 0.030332719398 0.041339950757 0.054989687281 0.06749103727
          0.070015825367 0.063070363458 0.059809356312 0.048211497777 0.035670178036 0.026444484012
          0.02073249451 0.01609427888 0.012313330629 0.0094169135432 0.0069589436864 0.0054344094
          0.0046272051069 0.0045785496428 0.0053303947076 0.006759349005 0.0089469312552 0.012005340696
          0.015597519126 0.020053054193 0.025426382521 0.031995499512 0.043099634782 0.05756935414
          0.070269157037 0.072575963749 0.065862587228 0.062483887156 0.05047961137 0.037709531878
          0.028031861625 0.022050928105 0.016990373981 0.01293255711 0.0097441175674 0.0071484485709
          0.0055018108459 0.0046254960915 0.0045185870454 0.0052686948268 0.0068168091606 0.0090931900719
          0.012306899098 0.016145198406 0.020911206379 0.026666111311 0.033542150635 0.044992921165
          0.059601758956 0.072692950383 0.075230039581 0.069205076294 0.066020213857 0.052912222614
          0.039557581429 0.029421502377 0.023053366276 0.017817029351 0.013508602476 0.0099446166437
          0.0073702880884 0.0054118702529 0.004556655085 0.0043924419561 0.0052660122667 0.0067248074215
          0.0092672108662 0.012507727105 0.016675948632 0.021624033197 0.027557251348 0.034772996317
          0.046750465762 0.061922487744 0.075696892069 0.078740380971 0.07196904748 0.06891730364
          0.055477610741 0.041606199754 0.031007927554 0.024388438805 0.018537008298 0.013870107838
          0.010333653268 0.0074446969334 0.0055371511873 0.0045589608841 0.0044350167732 0.0052010285711
          0.0068453182794 0.0093719195184 0.012862908348 0.016964794201 0.022316480268 0.028796202311
          0.036278167028 0.048587714594 0.064242874993 0.078280585295 0.081204314995 0.074909395145
          0.071825936289 0.05870332291 0.043648424005 0.032688522944 0.025626136425 0.019400964434
          0.014594544327 0.010636558734 0.0076760203932 0.0057191564204 0.0046884641132 0.0044591325501
          0.0052919916297 0.0070064875474 0.0095185566829 0.013055397166 0.017695622988 0.023115828037
          0.029980709709 0.037770481556 0.050476755332 0.06701001292 0.081103448678 0.083358547699
          0.077643297942 0.075066617077 0.060494190684 0.04552436578 0.034153294555 0.026632946971
          0.020197828853 0.014963674946 0.011144237636 0.0081039253908 0.0059560825807 0.0047883010687
          0.0046034805879 0.0053948606501 0.0071999224662 0.00985212933 0.013496663267 0.017932928407
          0.023720988559 0.030822865002 0.03907011777 0.052073452556 0.068757411461 0.083963176636
          0.085810762132 0.081596521626 0.077727497588 0.063820004787 0.047639427547 0.035637895134
          0.027776354971 0.021019060485 0.015734135139 0.011460455165 0.0082554532044 0.0061007526332
          0.0048988490944 0.004643571684 0.0054515800756 0.0072876480397 0.0099608498684 0.013720646206
          0.01857193278 0.024427667357 0.031796495055 0.040384502421 0.053955271521 0.071635526724
          0.086440127589 0.089665373568 0.085432962667 0.081622173716 0.06708404911 0.049775667608
          0.03720153891 0.029102293946 0.021985576596 0.016293508436 0.011788433676 0.0084863227827
          0.0063212764263 0.0048626203336 0.004634659079 0.0054214994788 0.0074494794596 0.010072883791
          0.013926631031 0.01903201505 0.02524778001 0.032931042349 0.041772693111 0.055881175306
          0.074520648694 0.089959254326 0.093277209661 0.089863044437 0.085804803609 0.069778567887
          0.051576046546 0.03858154486 0.030118097658 0.022841951974 0.01675270437 0.012179433132
          0.0085668597266 0.0062800985925 0.00495541746 0.0046702181365 0.0054592933953 0.0073543445033
          0.010114234468 0.014208612787 0.019314114181 0.02594290714 0.033815392652 0.042964357974
          0.05743826039 0.077003402303 0.09397066144 0.097582725981 0.093643971544 0.089516499345
          0.072875252933 0.053444820023 0.039961457856 0.031360077676 0.023937587156 0.017664780748
          0.012650401251 0.0088203494513 0.0062077069625 0.0049193877281 0.0046611569475 0.0054249533019
          0.0072034744348 0.01024210812 0.014602364066 0.020145557039 0.02689245033 0.03484292693
          0.044173220334 0.059095200283 0.07977279229 0.097247657313 0.10093781526 0.098974502439
          0.093680050191 0.07563608847 0.055468801204 0.041340176987 0.032531863115 0.024919526631
          0.018315462176 0.013093877078 0.0090363065635 0.0063373535733 0.0049299464422 0.0045923932629
          0.0053571835697 0.0072616792506 0.010409794011 0.014918570148 0.020620688272 0.02772854076
          0.035893216576 0.045364911802 0.06085798231 0.082278218827 0.1011454507 0.10607486513
          0.10341466386 0.097677628245 0.079051915212 0.057773140749 0.042910826525 0.033871154292
          0.026010462717 0.019104236025 0.013565745563 0.0094819330545 0.0064388778814 0.0049657635638
          0.0045902756506 0.005402758913 0.007302494204 0.010725477667 0.015276521313 0.02131062562
          0.028656060661 0.037093504401 0.046735524303 0.062924904887 0.085384193769 0.10470799665
          0.10994882191 0.10693952366 0.10168033885 0.081747818687 0.060088512798 0.044531547495
          0.035260397006 0.027120464025 0.019832361799 0.014008518404 0.0096416536008 0.0066015925199
          0.0050942333227 0.0045839142691 0.0054603359378 0.0074201243823 0.010852346009 0.015607399117
          0.021857608526 0.029598421718 0.038243498932 0.048131362407 0.064991802322 0.087759581065
          0.10809530802 0.11326021291 0.11062810606 0.105027918 0.085088551042 0.062742490188
          0.046733965979 0.036717794288 0.027929842749 0.020409879151 0.014449885083 0.0098141939695
          0.0066504261964 0.0050327236403 0.0045804951641 0.005417328964 0.0074134532903 0.010963732729
          0.015934092854 0.022332061566 0.030306451458 0.039522582048 0.050081034921 0.067268601695
          0.090694193836 0.11130606448 0.11660078706 0.11426560006 0.10931012515 0.088569787992
          0.065442525452 0.048851023919 0.038265259038 0.028977956516 0.021138588508 0.015005815908
          0.010310847807 0.006831520305 0.0050190851783 0.0043754678872 0.0053333504805 0.0075399275996
          0.011354213027 0.01645781286 0.02295368303 0.031180007382 0.04090406118 0.052020381611
          0.069676859279 0.093899703695 0.11503268348 0.11961365236 0.11929048089 0.11410792307
          0.092979654577 0.068758783946 0.050810747314 0.039500666653 0.030065503291 0.021875238019
          0.015373509272 0.010679012046 0.0071114845515 0.0050631698615 0.0044820978202 0.0053935961478
          0.0077613127852 0.011659842069 0.016704880586 0.02357913838 0.032097257881 0.041962082751
          0.053713154764 0.07268504326 0.097895050152 0.11944159277 0.12424731303 0.12445020588
          0.11902502217 0.096333761942 0.072019420605 0.052822595879 0.040975029909 0.030751201789
          0.022399492378 0.015928907603 0.01115889997 0.0073865027612 0.0052367854763 0.0045032990408
          0.0055610647187 0.0079736671894 0.012076275115 0.017130882704 0.023922109128 0.032681799565
          0.04326233885 0.055545868597 0.075612740543 0.10096006261 0.12408400748 0.1292883569
          0.12962704109 0.12321216477 0.099458072035 0.074104747656 0.054088106608 0.041837129463
          0.031305975591 0.022837578399 0.016215001749 0.011336858291 0.0076433090069 0.0054411624835
          0.0047315527932 0.0057030936834 0.0081609291205 0.01211874591 0.017279619577 0.024216807677
          0.033039763277 0.043932182297 0.056549038713 0.077474703674 0.10371844112 0.12784916047
          0.1340699507 0.13377720884 0.12714190453 0.10251133826 0.075487799592 0.05563022369
          0.043049016093 0.032229609278 0.023520979636 0.016539408089 0.011231522517 0.0077664648661
          0.0053749191415 0.0046343337797 0.0056365723973 0.0082159894419 0.011942093355 0.01753582003
          0.024760533355 0.033813832396 0.044944402425 0.057888719911 0.078560428556 0.10635405109
          0.13128656125 0.13774963261 0.13850563318 0.13111878296 0.10564514028 0.078690045343
          0.057716780813 0.044789318197 0.033858867676 0.024762333643 0.017339523042 0.011708196503
          0.0077099500699 0.0052989260009 0.0046143160437 0.0054967134264 0.0081626246186 0.012363727323
          0.018218961464 0.025880769965 0.035257009227 0.046491093702 0.059783527593 0.081433717139
          0.10916921307 0.1349151897 0.14204120715 0.14265174792 0.13559670369 0.10939491721
          0.080660215609 0.059573465408 0.046495022071 0.03536629267 0.025897059365 0.018294353279
          0.012273339176 0.0077947937171 0.0052021449331 0.0044608279063 0.0053925663951 0.0081885974912
          0.01287085136 0.019063410666 0.026900956975 0.036633812001 0.047988782669 0.061422887377
          0.083176474567 0.11254187011 0.13898135007 0.14582264693 0.14563279614 0.13919581603
          0.11279455543 0.083241463728 0.061230254864 0.047836952703 0.036540338034 0.026922220556
          0.018944704326 0.01257149679 0.0081211307197 0.0054419937676 0.0044912509436 0.0056273122337
          0.0084534396408 0.013109540357 0.019647425954 0.027808023795 0.037626839851 0.04918659022
          0.062803906261 0.085417574759 0.11553782688 0.14212006651 0.14839780421 0.1503395822
          0.14336111037 0.11607051249 0.085676992841 0.063453875446 0.04909615937 0.037378116302
          0.027554943814 0.019262184155 0.012657982927 0.0082437568731 0.0054205278394 0.0045218412854
          0.0055495073146 0.0085090915746 0.013075751948 0.019843610666 0.028314598372 0.038328036038
          0.050252935991 0.064823323873 0.087608810745 0.11848371801 0.14593963342 0.15273034474
          0.1552223827 0.14822786186 0.11942400562 0.088547358631 0.066009040891 0.051524980769
          0.038878919817 0.028338165767 0.019437253745 0.012921846372 0.0080504999649 0.0053149757238
          0.0045559194555 0.0054364290882 0.0083051138935 0.013276026722 0.019956955641 0.029029190078
          0.03970614573 0.052512464466 0.0672422505 0.090265727951 0.12155985344 0.1505480763
          0.15733427799 0.16008555635 0.15255882786 0.12370324013 0.092045654366 0.068158625684
          0.053427448543 0.040611599473 0.029487617682 0.020286597566 0.013079963278 0.008069549658
          0.005361523816 0.0044388238683 0.005441374175 0.0082735954146 0.013379547075 0.020740003678
          0.030065483533 0.041324062058 0.054287695344 0.069221629857 0.093503345293 0.12556359001
          0.15452610749 0.16190671027 0.16499967863 0.15746819053 0.12776676384 0.095078079866
          0.070264382895 0.055409516772 0.041847369937 0.030304247106 0.021019579456 0.013706417506
          0.0083720697985 0.0054647305622 0.0045144488101 0.0055430622579 0.008531763069 0.013958559292
          0.021376016111 0.030776199547 0.042451696744 0.056127657033 0.071170082771 0.09633813863
          0.12936182315 0.15915623706 0.16652489577 0.16995191894 0.16202960019 0.13087119183
          0.097027004183 0.072056747319 0.0559412637 0.042465578847 0.03108516097 0.021555699482
          0.014116099943 0.0089714306838 0.005693499096 0.0045817889643 0.0057690759088 0.0090942011846
          0.014321027409 0.021849404339 0.031451283131 0.042955089006 0.056541272976 0.072802560831
          0.098104570461 0.13225395382 0.1634716113 0.1711860849 0.16950488407 0.16346573664
          0.13204785052 0.098265089182 0.07230701886 0.05586556846 0.042228179713 0.031066427744
          0.021802706677 0.014352230188 0.0090935085386 0.0058262403898 0.0046636302194 0.0058671485085
          0.0092031825035 0.014507611057 0.022011909874 0.031371359187 0.042621322038 0.056367131517
          0.072949845642 0.099162535515 0.13323685033 0.16460678592 0.17051032256 0.15410870597
          0.14829585765 0.11829860052 0.086824982919 0.063734525735 0.050168760288 0.037344996887
          0.027195399915 0.019078362391 0.012623118226 0.0079727933586 0.0051317804216 0.0041716056992
          0.0051713257517 0.0080527917066 0.012750330092 0.019255823891 0.027439453853 0.037678027371
          0.05061287112 0.064279525505 0.087628872011 0.11930802215 0.14918011624 0.15476152538
          0.14738928834 0.14514362304 0.11314387093 0.087527893097 0.063115771645 0.045306306628
          0.035342936392 0.027177639441 0.018117208988 0.010854461241 0.007391528418 0.0040573076202
          0.0029858846025 0.0040977116928 0.0074764670971 0.010963265238 0.01828513545 0.027416013971
          0.035641059342 0.045672878548 0.063630106045 0.088273305203 0.11400210461 0.14587484719
          0.14771379357 0.16468720389 0.15987497585 0.12029635172 0.092252300547 0.064786964709
          0.04912732594 0.036267435018 0.026460426088 0.019083256169 0.010517291092 0.0068439562457
          0.0039026289439 0.0022552117328 0.0039406266106 0.0069084151514 0.010610067594 0.019228979369
          0.026650910464 0.036518590925 0.049463514317 0.065218026011 0.092929593718 0.12108192385
          0.16048377294 0.16491221219 0.17859945713 0.16789688804 0.13478045941 0.10051461912
          0.07626067126 0.055994031205 0.045637756972 0.033617854941 0.023282402308 0.013962781303
          0.0066978373243 0.0032250198188 0.0021152233592 0.0032446356158 0.006741797855 0.014045494873
          0.023405518326 0.033792086247 0.045874948278 0.056292018603 0.076674726901 0.10112084651
          0.1354637784 0.1684405868 0.1788405684
        </DataArray>
        <DataArray type="Float64" Name="Volume_Force" NumberOfComponents="2" ComponentName0="f_x" ComponentName1="f_y" format="ascii" RangeMin="0.0088780872525" RangeMax="23.173037962">
          1.7526926994 2.0138833523 0.85732859373 1.7022912502 1.4785730839 1.6869946718
          2.1633136272 1.5641499758 1.7402855158 1.6000277996 1.6204661131 1.8642096519
          1.7181123495 2.1590127945 0.88377046585 2.4201579094 1.2470963001 2.5596990585
          1.7183148861 2.6914048195 1.1884469986 2.7989428043 1.795640707 2.8730285168
          1.3830634356 2.9407835007 0.97637498379 2.9015040398 1.591830492 2.8075883389
          1.0712174177 2.7243130207 1.5561131239 2.5838685036 1.9381459951 2.4726214409
          1.1502406597 2.3421545029 1.3277791739 2.1891093254 1.3573871851 2.002764225
          1.1378911734 1.4022028446 1.9143992662 0.62043839693 2.4462065697 -0.38170781732
          1.2035677433 -0.91800111532 1.3151159286 2.0115325451 1.8407114744 1.8841193914
          0.76270490885 1.6637791395 1.4976365566 1.398203969 1.0855979919 1.189324379
          1.0158131123 1.4002149105 1.1839118004 1.5999403 0.29855045676 1.8646136522
          0.78015089035 2.0554344654 1.3363434076 2.1024589539 0.73759579659 2.1546776295
          1.4382916689 2.1690204144 0.99886828661 2.1756429672 0.55860215425 2.2019629478
          1.2609177828 2.1633365154 0.66366517544 2.1379721165 1.2221636772 2.0792975426
          1.7213436365 1.9266017675 0.86707687378 1.813108325 1.0769633055 1.7817264795
          1.0981353521 1.6967868805 0.86582368612 1.2412703037 1.6965682507 0.47226032615
          0.55301105976 -0.45240092278 0.84049832821 -1.2715307474 0.61287933588 2.0801084042
          1.027263999 1.8273561001 -0.32896149158 1.6187250614 0.60856586695 1.3634771109
          0.25808137655 -1.1619865894 0.32659000158 -0.88195890188 0.64648640156 -0.65989303589
          1.1412684917 -0.42582163215 0.23319596052 -0.23099851608 0.8819103837 -0.20452876389
          0.17922569811 -0.19494098425 1.0152529478 -0.19756899774 0.51795488596 -0.20032048225
          0.018063738942 -0.17048105597 0.85272622108 -0.18577879667 0.14739735425 -0.17699448764
          0.79385256767 -0.21281245351 -0.10738070309 -0.33374592662 0.39524447918 -0.4419875443
          0.72083199024 -0.46940550208 0.81824582815 -0.57665079832 0.58414322138 1.2340847254
          1.6218426228 0.4103820622 0.25806891918 -0.59715485573 0.54492306709 -1.3406147957
          -0.32802897692 2.1234848499 0.015164482407 0.3745636642 0.6218932271 -0.055604867637
          -0.37303593755 -0.52812033892 -0.63804292679 -0.93836116791 -0.42681142688 -0.72209960222
          0.0029128543101 -0.51261460781 0.5935561657 -0.36159712076 -0.34607934952 -0.23601792753
          0.39292240143 -0.21110293269 -0.34758850932 -0.20072671771 0.61844158173 -0.20360438526
          0.072799764574 -0.18398553133 -0.47342899442 -0.18594734371 0.49058237672 -0.1907222569
          -0.25276643038 -0.19242468476 0.48287856579 -0.22119301558 -0.46216890216 -0.28329396248
          0.11313677579 -0.30604800582 0.51935482025 -0.31245443225 0.70267558098 -0.32909175754
          0.4860419929 -0.57622933388 -0.42812156677 -1.1900036335 0.21611280739 -1.9701174498
          0.59692209959 -1.2213760614 0.55731278658 1.9560492039 -1.1681728363 0.48045143485
          -0.45866259933 0.14947922528 -1.2436242104 -0.24014033377 -1.360255003 -0.5177115798
          -1.0440173149 -0.29526343942 -0.52636426687 -0.11394637078 0.11740567535 0.00061241188087
          -0.86173909903 0.094713754952 -0.027835967019 0.16893936694 -0.77004933357 0.21944397688
          0.29018563032 0.23558977246 -0.21721528471 0.27854940295 -0.72251093388 0.24806676805
          0.33727511764 0.23306038976 -0.40462258458 0.18261793256 0.42958363891 0.11012867093
          -0.55823051929 0.060956906527 0.063872791827 0.065195895731 0.54525202513 0.0779395625
          0.80845350027 0.055197674781 0.64966058731 -0.22544342279 -0.11157792807 -0.83044606447
          0.69618231058 -1.6714009047 -0.85687279701 -1.2306381464 -0.50618249178 0.73417788744
          -0.028632048517 0.63728308678 0.85813200474 0.42122295499 0.16557732224 0.12975718081
          0.069430194795 -0.024607103318 0.38623613119 0.25452184677 0.83993786573 0.39514240623
          -0.19404414296 0.54509031773 0.5508159399 -0.94282144308 -0.24063062668 -0.80271941423
          -0.88829565048 -0.67954558134 0.23688951135 -0.6163880825 -0.16278931499 -0.58293944597
          -0.56103754044 -0.60348451138 0.56835758686 -0.66256004572 -0.073029018939 -0.78823792934
          -0.8598524332 -0.9284966588 -0.11345937103 0.59780925512 -1.16281569 0.54659551382
          -0.73971307278 0.58071655035 -0.45819622278 0.48161298037 -0.58887505531 0.096412822604
          -1.2753202915 -0.5599847436 -0.32355773449 -1.4509130716 0.24553522468 -2.292018652
          0.15434749424 0.70833390951 0.90701776743 0.70450770855 -0.14786368608 0.5372427702
          -0.64142543077 0.33512154222 -0.59079879522 0.26518946886 -0.23472888768 0.60459220409
          0.29295662045 -0.88301193714 -0.66172760725 -0.66839665174 0.15074756742 -0.50759124756
          -0.45561727881 -0.36838406324 0.65425467491 -0.19394762814 0.23611146212 -0.11463709176
          -0.088149487972 -0.092264004052 -0.41257229447 -0.10405061394 -0.8255110383 -0.18016785383
          0.29375526309 -0.35222041607 -0.31252396107 -0.48372280598 0.49790507555 -0.61004030704
          -0.46314057708 -0.73722404242 0.042629223317 0.91196334362 0.38067683578 0.73441791534
          0.41105946898 0.2802349925 -0.074141025543 -0.42806774378 -1.0822865963 -1.3657718897
          -0.25801435113 -2.2565374374 0.48818540573 1.7528955936 -0.50159269571 0.57888150215
          0.64894908667 0.52928048372 0.25443556905 0.40832847357 0.31608465314 0.38228288293
          0.65420991182 0.68332600594 -0.39014390111 -0.75340771675 0.39073765278 -0.49073031545
          -0.23361982405 -0.27986750007 -0.74392712116 -0.084134638309 0.44699648023 0.092001788318
          0.17588111758 0.12247048318 -0.040742378682 0.12119051814 -0.26028111577 0.13157455623
          -0.53364032507 0.10694117844 0.66332775354 -0.068198800087 0.1571188271 -0.25687643886
          -0.46679675579 -0.42945730686 0.31266844273 -0.60330957174 -0.74933993816 0.98502796888
          -0.42289859056 0.82934707403 -0.3686863184 0.32580062747 -0.74933058023 -0.45129871368
          0.4455512464 -1.4411004782 -0.45425033569 -1.1665699482 0.54003143311 1.519225955
          -0.22657331824 0.48919376731 1.0928275585 0.47427728772 0.8069217205 0.33246317506
          -0.79656296968 0.27767363191 -0.32129314542 0.63400506973 0.41345393658 -0.75482732058
          -0.26890483499 -0.45355412364 -0.71902918816 -0.18976704776 0.52182537317 0.036427367479
          0.26577097178 0.19028000534 0.089783996344 0.20387507975 -0.022545907646 0.19504220784
          -0.13781356812 0.20882324874 -0.31885632873 0.20013573766 -0.57222104073 0.048701867461
          0.67579829693 -0.16618594527 0.22965531051 -0.38636639714 -0.45505228639 -0.59862393141
          0.26470711827 0.94283878803 0.73443490267 0.72513449192 -0.87682336569 0.24343630672
          -1.1523038149 -0.50976800919 0.21151898801 -1.5185443163 -0.45927596092 -1.3681172132
          0.41554868221 1.143455863 -0.23677797616 1.55755651 -0.7061689496 0.23708707094
          -0.76036763191 0.088096387684 -0.41412755847 0.032619472593 0.21442776918 0.48595508933
          -0.51290327311 -0.85956704617 0.60361778736 -0.52447217703 0.31127151847 -0.21180056036
          0.10403361171 0.011514127254 0.025044908747 0.13278412819 -0.020534157753 0.15073865652
          -0.020961781964 0.13719742 -0.02356653288 0.15363650024 -0.073225662112 0.13828510046
          -0.1529956162 0.023658953607 -0.35555759072 -0.18945008516 -0.64214158058 -0.45665234327
          0.47242519259 -0.69655847549 -0.27160313725 0.80244141817 0.3540314734 0.48980775476
          0.69317752123 0.017222614959 0.64648348093 -0.71018254757 0.260132581 -0.42496839166
          -0.31858316064 -1.7190128565 0.14206771553 0.66326570511 -0.41867649555 1.1244213581
          -0.7364192605 1.3850090504 -0.57300323248 -0.25180503726 -0.069211952388 -0.28163018823
          -0.89335405827 0.19388589263 0.13788664341 0.53556364775 -0.19282504916 -0.76544028521
          -0.35748767853 -0.42221385241 -0.38275426626 -0.21119011939 -0.3060246706 -0.063391767442
          -0.18922631443 -0.022375285625 -0.027464043349 -0.024546641856 0.13260345161 -0.019713487476
          0.24806204438 -0.056724242866 0.328815341 -0.19634354115 0.30720925331 -0.39463227987
          0.14955882728 -0.69354450703 -0.18610645831 0.69965785742 0.83345556259 0.50749391317
          0.00066066294676 0.17712767422 0.49249309301 -0.31819927692 0.6892837882 0.45370081067
          0.43646752834 -0.83809351921 -0.04066291824 -2.1742928028 -0.29745966196 1.212998271
          -0.76769214869 0.6007155776 -0.8825827837 0.90093147755 -0.53186994791 0.9772644043
          0.16008745134 -0.78380221128 -0.47492709756 -0.27669009566 -0.8785328269 0.16211357713
          0.53262406588 0.45180997252 0.54638451338 0.73876357079 0.6747867465 -0.6433608532
          -0.65292203426 -0.44869467616 -0.34167203307 -0.35418659449 -0.030467217788 -0.35972553492
          0.27875685692 -0.35243943334 0.59241676331 -0.4405118525 -0.72786200047 -0.62830239534
          -0.59715145826 0.76580548286 -0.58258318901 0.52372354269 0.82038843632 0.32166358829
          0.40880098939 0.030946794897 -0.23659215868 -0.33029979467 0.4420439899 0.91220790148
          0.81675440073 -0.020970409736 0.77375560999 -1.3408464193 0.4351053834 -1.5961922407
          0.88187855482 0.56772142649 0.79773443937 1.3074887991 0.86535978317 0.25621506572
          -0.51376914978 0.30838224292 0.33730453253 0.24506233633 -0.10238932073 -0.93565732241
          -0.26929795742 -0.40188166499 -0.34920957685 -0.044441934675 -0.23117573559 0.19144336879
          0.10797894746 0.33478659391 0.54894757271 0.48772746325 -0.52110946178 0.63074690104
          -0.028634894639 0.66213035583 0.46497350931 0.63084250689 -0.60023969412 0.49524694681
          -0.1581248492 0.35252448916 0.17475000024 0.22164309025 0.2866371274 0.020287115127
          0.19980955124 -0.25632455945 0.030975896865 -0.63866317272 -0.42272233963 0.68994671106
          0.40934300423 0.23432527483 -0.95232868195 -0.69082051516 -0.77648985386 -0.65590512753
          -0.75650310516 -2.2513821125 0.0011432392057 0.928352952 -0.0005535366945 0.48836255074
          0.37723568082 0.9172142148 -0.70887458324 1.0467067957 0.36755523086 -0.69778054953
          0.14495520294 -0.14255239069 0.14163254201 0.3981346786 0.31966352463 -0.79972070456
          0.65516245365 -0.51546370983 -0.44012528658 -0.32311967015 0.18020837009 -0.20753188431
          -0.70926249027 -0.067948505282 -0.032786544412 0.020116042346 0.64983576536 -0.066943928599
          -0.23613411188 -0.20242697001 0.37977010012 -0.31087204814 -0.71994793415 -0.49627649784
          -0.38832327724 -0.74484306574 -0.21293874085 0.53895777464 -0.22020497918 0.14675745368
          -0.45609104633 -0.26051056385 0.60491037369 0.96978640556 -0.45725446939 -0.016750367358
          -0.00082639383618 -1.4414873123 0.143527776 -1.8476930857 0.76174074411 1.144968152
          1.0576139688 0.83019387722 -0.24318225682 1.4106788635 0.74094158411 -0.12603743374
          0.26880550385 -0.17398883402 0.20597526431 0.37425860763 0.36842566729 -0.7094591856
          -0.79055655003 -0.21638852358 -0.16703979671 0.11652217805 0.5908780098 0.3341358602
          -0.15942578018 0.45503893495 0.68978381157 0.61694073677 -0.031776554883 0.67539912462
          -0.75091993809 0.61340290308 0.10178887099 0.45212697983 -0.65399074554 0.33625644445
          0.099764302373 0.13187859952 0.72190278769 -0.15893918276 -0.43688932061 -0.56514328718
          -0.27846831083 0.66039824486 -0.35701090097 0.25387209654 -0.85580360889 -0.20872047544
          0.16420930624 0.49015146494 -1.049045682 -1.1010935307 -0.60378563404 -1.6214636564
          -0.55086374283 0.083850473166 -0.11163458973 1.0264055729 0.79658341408 1.6993365288
          0.10442624241 0.13852183521 -0.065420255065 0.11828008294 0.11264483631 -0.99008256197
          0.52074062824 -0.39293047786 -0.37631008029 0.19773769379 0.49461808801 0.60814368725
          -0.13944716752 -0.74351364374 -0.64244669676 -0.54526507854 0.42421847582 -0.39883542061
          -0.038469798863 -0.38583299518 -0.50240278244 -0.40024584532 0.56737244129 -0.54721665382
          0.065043203533 -0.7382235527 -0.57310181856 0.62183719873 0.30409395695 0.25432813168
          -0.58566075563 -0.24386642873 -0.18109419942 -0.69892412424 -0.020439753309 0.54802232981
          -0.21553875506 0.066842734814 -0.88123625517 0.78128242493 0.12118461728 -0.86091130972
          0.68467140198 -2.6283509731 -0.22522713244 1.1107950211 0.48589807749 1.0125519037
          -0.37831586599 1.7155464888 -0.72042685747 0.15509901941 -0.56717216969 0.17934142053
          -0.12111730874 -0.9477841258 -0.99722200632 -0.27141788602 -0.10628543794 0.39048939943
          -0.57578247786 0.85923349857 0.67045867443 -0.49437001348 0.43233647943 -0.26798674464
          0.17768843472 -0.15395820141 -0.039478909224 -0.1609673351 -0.26019141078 -0.15446740389
          -0.514975667 -0.27064791322 -0.75180500746 -0.48648411036 0.48958957195 0.88171261549
          0.029545778409 0.45543557405 0.9336553812 -0.11908962578 0.055734075606 -0.64985078573
          0.47958090901 0.61387771368 0.60818874836 0.099652722478 0.29173848033 0.83043754101
          -0.47740888596 -0.86313343048 0.40095981956 -1.5762729645 -0.096580311656 0.87439006567
          0.96874910593 0.85164350271 0.44738844037 1.521091342 0.30671080947 -0.027190824971
          -1.0619385242 -0.0061146910302 -0.3464640975 -1.0734102726 -0.94701051712 -0.31908869743
          0.16531246901 0.37639778852 -0.11981162429 0.84718936682 -0.21622537076 -0.46934714913
          -0.17010782659 -0.28219875693 -0.11303480715 -0.17894288898 -0.039662852883 -0.17331081629
          0.03108018823 -0.17585250735 0.085916116834 -0.27650657296 0.12800841033 -0.45220085979
          0.027870457619 0.87648886442 -0.2510831356 0.44191789627 0.87653273344 -0.1713449806
          0.275673002 -0.77850818634 0.97049552202 0.42423835397 -0.42716255784 -0.089066825807
          -0.54315286875 0.63240140676 -0.97398108244 -1.0118933916 0.26785638928 -1.7829312086
          -0.22605620325 0.36657935381 -0.87959593534 1.7522392273 -1.0434861183 1.0922900438
          -0.69312667847 -0.43394482136 0.045003093779 -0.46336278319 -0.56946855783 0.25804829597
          0.66674822569 -0.61098355055 0.45903602242 0.074351809919 0.3986389637 0.52091819048
          0.49984776974 0.77558380365 -0.81089544296 -0.62145543098 -0.44568297267 -0.44639587402
          -0.042670179158 -0.42087209225 0.35904601216 -0.43861716986 0.72620302439 -0.6059256196
          -0.58747786283 0.79484266043 -0.49369460344 0.54579794407 -0.55312663317 0.13081300259
          -0.75158530474 -0.47127637267 0.48641782999 0.53791755438 -0.14383584261 -0.042402349412
          0.5584654212 -0.4901548028 0.93299418688 0.24043609202 0.89455509186 -0.04464552924
          0.39389270544 -2.2508337498 -0.51583552361 0.81420397758 1.1400227547 1.1213749647
          -0.59331732988 0.43641209602 0.027244307101 0.59765845537 -0.63301932812 -1.1363896132
          0.68909102678 -0.38050296903 0.52273488045 0.39538395405 0.57166951895 -0.583081007
          -0.74305361509 -0.11596103013 -0.37486129999 0.14395849407 0.17088992894 0.34948050976
          -0.74975574017 0.5433216095 -0.043083619326 0.63944119215 0.66597807407 0.55145430565
          -0.25256547332 0.36455896497 0.28793498874 0.16469368339 0.648024261 -0.093603387475
          -0.66687238216 -0.52651667595 -0.61579924822 0.5310741663 -0.78507685661 -0.11155346781
          0.52339792252 -0.73175996542 -0.1748085469 0.53405761719 0.45963463187 -0.41625067592
          -1.1500895023 -0.6902397275 0.70974040031 -1.7610919476 0.68568736315 -0.062504723668
          0.94424146414 1.4947445393 -0.35393950343 0.90786540508 0.59466713667 1.1816283464
          0.18160873652 -0.45270335674 0.12164827436 0.31638675928 0.25532123446 -0.57646924257
          0.61429411173 0.042303651571 -0.35973253846 0.53082549572 0.33532038331 -0.72759062052
          -0.40191248059 -0.46203911304 0.53714442253 -0.27002170682 -0.050401233137 -0.16539151967
          -0.6346103549 -0.26648837328 0.30776375532 -0.4516877234 -0.43050253391 -0.71388298273
          0.26340016723 0.55017006397 -0.70984113216 0.10014861077 -0.35063564777 -0.44088369608
          -0.2238574475 0.58021491766 -0.30074375868 -0.057419214398 -0.74523282051 1.1089613438
          0.22477695346 0.058056179434 -0.94565755129 -0.28749960661 -0.5133972168 -2.6230082512
          -0.12395040691 -0.085955001414 0.47555959225 1.533010006 -0.47785395384 1.0603955984
          -0.97923249006 -0.24769584835 -0.95828491449 -0.14255610108 -0.66634845734 -1.0058840513
          -0.15319469571 -0.20692011714 0.54133141041 0.38844308257 -0.097245790064 -0.69308149815
          -0.61603403091 -0.35313934088 0.57466161251 -0.052070405334 0.25889995694 0.12285699695
          -0.049507897347 0.17153415084 -0.35871553421 0.12329316884 -0.67415046692 -0.047276590019
          0.51962596178 -0.33980965614 -0.0022487281822 -0.66954421997 -0.63988482952 0.45050367713
          0.052549879998 -0.068440154195 0.5606598258 -0.73809957504 0.83498644829 0.25391435623
          0.82039833069 -0.30778619647 0.35352474451 0.23056575656 -0.46383339167 -0.21294648945
          0.30975621939 -2.5866088867 0.69576817751 0.72208446264 -0.1839800328 1.2118617296
          -0.77728140354 0.85312080383 -0.79555815458 1.3156011105 -0.45015096664 -0.24234898388
          0.15369524062 0.62724596262 -0.61731809378 -0.21939508617 0.35892948508 0.42476814985
          0.084235027432 -0.68294864893 -0.026408188045 -0.29593461752 -0.057070538402 -0.00023490747844
          -0.06276357919 0.14850710332 -0.049210060388 0.20091857016 -0.036876872182 0.14755751193
          -0.045650672168 0.0018000141717 -0.073775373399 -0.28479248285 -0.18445304036 -0.65567821264
          -0.46220377088 0.49357959628 0.51429158449 -0.080806091428 -0.26572021842 0.89284366369
          0.32314577699 0.14628994465 0.64194172621 1.2538598776 0.65660727024 0.044478919357
          0.20902369916 -0.49472716451 -0.46717071533 -1.7503995895 -0.47900271416 0.24881435931
          0.94531816244 0.7719194293 0.84829032421 0.40270507336 -0.72370576859 0.84116637707
          -0.070646449924 -0.67910993099 -0.71010059118 0.26678785682 0.46739119291 -0.54111123085
          0.23385390639 0.097567789257 0.2504914701 0.60500943661 0.50632619858 -0.6013263464
          -0.74004930258 -0.29601407051 -0.38151928782 -0.1221563071 -0.050162795931 -0.083737507463
          0.27767911553 -0.1263666153 0.63668102026 -0.29374730587 -0.60826575756 -0.59015339613
          -0.35255679488 0.63459330797 -0.33916091919 0.1618154794 -0.57924878597 -0.40622028708
          0.58972406387 0.52493971586 -0.064285002649 -0.29604578018 0.56379687786 0.77486300468
          -0.98385483027 -0.41882306337 -0.93614202738 -0.92842650414 0.70134204626 -2.1614468098
          -0.040396586061 0.61656361818 -0.17062044144 1.3186922073 0.24116694927 1.1261941195
          -0.84219264984 -0.031577371061 0.21079881489 0.20929677784 -0.065852761269 -0.52404749393
          -0.10670379549 0.37470129132 0.032671116292 -0.58828514814 0.38711962104 -0.051144469529
          -0.58607274294 0.26018324494 0.10733529925 0.57769554853 -0.75479930639 0.81129616499
          -0.05313077569 -0.70220398903 0.65134990215 0.80868691206 -0.20639319718 0.57880944014
          0.48711565137 0.27390438318 -0.49542024732 -0.022024020553 -0.14231003821 -0.52728748322
          -0.011257705279 0.50396066904 -0.060068957508 -0.27344736457 -0.35325354338 0.58497697115
          0.67483925819 -0.096436358988 -0.3669950068 0.32806435227 0.19661137462 -0.32624822855
          0.2870734036 -1.7561603785 0.24114266038 -0.41902369261 0.58721011877 1.6625537872
          -0.53639000654 1.5493224859 0.64675486088 0.43203124404 0.36581498384 -1.0584657192
          0.49600049853 -0.026399793103 -0.75889718533 -0.77508407831 -0.25057610869 -0.05590473488
          0.5092099905 0.50655692816 -0.084718033671 -0.71273696423 -0.60487949848 -0.37713652849
          0.45375078917 -0.13794924319 -0.055661734194 -0.12412278354 -0.56805789471 -0.1420917064
          0.49507242441 -0.37929856777 -0.022738145664 -0.703730762 -0.62287044525 0.53148829937
          0.13659477234 0.0021054949611 0.64136040211 -0.65225380659 -0.62584102154 0.2168238759
          -0.50986331701 -0.6903000474 -0.82119756937 0.36801278591 0.40828239918 0.77622443438
          -0.56118434668 0.034087780863 -0.011314875446 -2.761749506 0.27398207784 -0.51426273584
          1.1202911139 1.6576730013 0.34140557051 1.5980995893 0.030141459778 0.50120520592
          0.25838962197 -1.0253733397 -0.74721002579 -0.029736604542 0.068349719048 -0.74426954985
          -0.56188082695 0.076727539301 0.55069774389 0.69908744097 0.33323153853 -0.52564489841
          0.22591196001 -0.18739823997 0.088288210332 0.02400954254 -0.055129576474 0.037867605686
          -0.20210017264 0.017632393166 -0.33958873153 -0.19190809131 -0.4448646605 -0.51685142517
          -0.66934233904 0.72172886133 0.44541242719 0.12667432427 -0.18481753767 -0.62566900253
          0.62344574928 0.21110062301 -0.4026299119 -0.65531659126 -0.21036356688 0.45386859775
          -0.47994613647 0.83648693562 -1.0991544724 0.047012716532 -0.042339615524 -2.8144259453
          0.0011917775264 0.22033059597 -0.69456154108 1.237823844 -1.0234593153 1.2627410889
          -0.70198267698 0.15074814856 0.097650721669 0.3585511148 -0.43745568395 -0.43546462059
          -0.77010673285 0.59808093309 0.59876734018 -0.19381763041 0.52727818489 0.46282124519
          0.67366594076 -0.74826061726 -0.58952045441 -0.41773274541 -0.31270623207 -0.22204826772
          -0.055179771036 -0.19418393075 0.19928441942 -0.22804114223 0.47555994987 -0.41985186934
          -0.78921711445 -0.73630398512 -0.65009909868 0.4845648706 -0.71974533796 -0.14808535576
          0.65245348215 0.71281707287 0.31838816404 -0.19707107544 -0.24621076882 0.72379821539
          0.51389241219 0.11714084446 0.87512218952 0.54483109713 0.7130510807 -0.30220100284
          0.25645235181 -2.0190179348 -0.40471163392 -0.53199619055 -0.59799540043 0.51198792458
          -0.36287462711 2.0456254482 0.42520973086 1.1129500866 -0.078847117722 -0.42922097445
          -0.17724187672 -1.1828445196 -0.11984582245 -0.1032416746 0.081004329026 0.70418846607
          0.39519634843 -0.26407679915 -0.5892136693 0.16353008151 0.13377583027 0.44757601619
          -0.76924234629 0.71390223503 -0.056641146541 -0.83748668432 0.65607374907 0.71287930012
          -0.24221977592 0.44719055295 0.47513788939 0.17703697085 -0.51693356037 -0.23906251788
          -0.20311267674 0.75057888031 -0.004221081268 0.0078104357235 0.051844783127 -0.95266032219
          -0.079246409237 -0.07650077343 -0.62970352173 1.0709289312 0.21043536067 1.3345867395
          0.59329658747 -1.0000070333 0.64704912901 -2.7166488171 0.73704403639 -0.49953526258
          -0.64274096489 0.72304821014 0.15202206373 0.89255976677 -0.43073102832 1.5615185499
          -0.38992238045 0.0070838807151 -0.037313789129 -0.72568333149 0.47465673089 0.33611765504
          -0.5097129941 -0.46088021994 0.21968632936 0.20807515085 -0.34990274906 0.68532311916
          -0.8464397192 -0.5697696209 0.3284317255 -0.28515699506 -0.06067796424 -0.21567742527
          -0.45063620806 -0.28359055519 0.72936201096 -0.56094706059 0.233226493 0.70057088137
          -0.33996599913 0.23562730849 0.38981837034 -0.41443547606 -0.60158473253 0.44022291899
          -0.09388910979 -0.50391018391 0.22536838055 0.3470056355 0.21792036295 1.517624259
          -0.33446738124 0.18177805841 0.63950836658 -0.75990140438 -0.48578700423 -2.65097785
          -0.074748434126 -0.75934380293 1.0686097145 0.54487705231 0.58525216579 0.72106391191
          0.52399736643 1.3937608004 -0.80293506384 -0.088120065629 -0.03329847008 -0.74959123135
          -0.67834728956 0.30679404736 0.36319994926 -0.48409175873 -0.0069885528646 0.26153063774
          -0.18770045042 -0.81111222506 -0.21397387981 -0.41114795208 -0.16668009758 -0.14350125194
          -0.064467437565 -0.091863468289 0.03609617427 -0.13903869689 0.085820488632 -0.39946258068
          0.063391759992 -0.79121214151 -0.11668876559 0.28696647286 -0.4845662117 -0.4374999404
          0.5521684289 0.40924203396 -0.10360731184 -0.53390735388 0.63728660345 0.23692831397
          -0.73864668608 1.3310270309 -0.7707208395 0.0083314897493 -1.0804908276 -0.93289685249
          0.32624354959 -2.8437840939 0.67253154516 -0.28221642971 0.51850533485 1.1389245987
          0.64871770144 1.5103080273 -0.64813226461 0.67744237185 0.29548040032 -0.79141891003
          -0.14873082936 0.31767475605 -0.37380287051 -0.21897082031 -0.43436488509 -0.9113587141
          -0.30246794224 -0.14890421927 -0.020247722045 0.34066268802 0.41070908308 0.75722229481
          -0.6281388998 -0.51188278198 -0.068642124534 -0.40609428287 0.49426031113 -0.50603526831
          -0.53752076626 0.77023005486 -0.10280658305 0.36022880673 0.17562814057 -0.1245931983
          0.30972090364 -0.86265397072 0.24714268744 -0.11518065631 0.012562314048 0.52495729923
          -0.45970121026 -0.47877585888 0.44000324607 0.6161981225 -0.81223630905 0.81583225727
          -0.50131642818 -0.28823909163 -0.39828041196 -2.3201830387 -0.56540954113 -0.15355743468
          -0.30593091249 1.3644254208 0.39920958877 1.8431200981 -0.33474987745 1.090182066
          -0.56711375713 -0.25377625227 -0.43069124222 -0.77085399628 -0.15076377988 0.39789512753
          0.32224538922 -0.25230363011 -0.6166009903 0.53468316793 0.10994724929 -0.48390188813
          -0.56059241295 -0.065283112228 0.45301240683 0.18037095666 -0.066063337028 0.2533262074
          -0.58488726616 0.18678915501 0.42836469412 -0.051591742784 -0.24051311612 -0.46684938669
          0.48943382502 0.55397617817 -0.44899776578 -0.20791842043 0.02321863547 0.50094509125
          0.29838070273 -0.5663292408 0.40892636776 0.056582976133 0.13859693706 1.0379015207
          -0.54643279314 1.1777592897 0.34337309003 -0.0060027576983 0.85887801647 -2.1153519154
          -0.18699519336 -0.31083312631 0.65661513805 1.3313456774 -0.031035900116 1.8433171511
          -0.18596686423 1.1186430454 0.1508743912 -0.20517130196 -0.83998811245 -0.66125428677
          -0.024784283713 -1.0270469189 -0.58912873268 0.01136275474 0.55097824335 -0.79920065403
          0.26068541408 -0.23212383687 0.094536818564 0.15393106639 -0.00069556577364 0.40611791611
          -0.063141644001 0.44581910968 -0.12942400575 0.40850296617 -0.22617357969 0.15928719938
          -0.39414986968 -0.22223608196 -0.68664586544 -0.78429818153 0.45575690269 0.052537862211
          -0.10961343348 -0.92490875721 0.70634353161 -0.45810064673 -0.31215679646 0.10293540359
          -0.013543412089 1.0759547949 -0.11987660825 1.2061032057 -0.6270223856 -0.015398839489
          0.48130300641 -2.2290813923 -0.032138176262 -0.80562072992 -0.56090766191 0.88829487562
          -0.65674322844 1.44789505 -0.21102946997 0.68418169022 -0.97249013186 -0.63051480055
          0.25307288766 -1.0462222099 0.025956746191 0.24755764008 -0.0032329056412 -0.29463028908
          0.0870725438 0.49999752641 0.31620937586 -0.50110703707 0.69546985626 -0.09910210222
          -0.47430360317 0.087728649378 -0.065152928233 0.19626544416 0.34513065219 0.086671993136
          -0.82958680391 -0.10080065578 -0.45156699419 -0.49502018094 -0.2233145535 0.51200407743
          -0.13402712345 -0.25797569752 -0.1626072228 0.34598848224 -0.39449211955 -0.84478110075
          0.80703556538 -0.3253659308 -0.0013161213137 0.65196180344 0.49093395472 0.83852773905
          0.57707333565 -0.40385329723 0.31517162919 -2.6752235889 -0.0092578800395 -0.58852463961
          0.1145478189 1.2945244312 0.63486325741 2.0207080841 -0.26055112481 1.3431596756
          -0.51251870394 0.11783266068 -0.36525684595 -0.30753475428 -0.0070286188275 -0.63946509361
          0.49590671062 0.4444655776 -0.47404885292 -0.3434176147 0.27778595686 0.28632727265
          -0.39714169502 0.68081057072 0.54847449064 -0.68423527479 -0.067617230117 -0.56170225143
          -0.6822270751 -0.68480181694 0.26299089193 0.68292748928 -0.41547775269 0.2928468883
          0.3372631371 -0.33207672834 -0.63530486822 0.47780036926 -0.13183769584 -0.54681831598
          0.2193698287 -0.11207724363 0.33719152212 0.41551697254 0.044769849628 1.3110488653
          -0.80421549082 1.4117568731 -0.092709101737 0.02501950413 0.30502787232 -2.4057562351
          -0.25254926085 -0.67896819115 0.49841704965 1.3599132299 -0.27113297582 0.62074863911
          -0.42653611302 -0.17411951721 -0.12411918491 0.29113224149 0.5556434989 -0.11739003658
          -0.13515563309 -0.48291996121 -0.70634442568 0.66036182642 0.46048760414 -0.12555886805
          0.1768501699 0.57106530666 0.024275846779 -0.60578340292 -0.019653821364 -0.41018012166
          -0.066168524325 -0.33571752906 -0.11456163973 -0.40827167034 -0.16531814635 -0.59975421429
          -0.31863161922 0.57948601246 -0.59916889668 -0.11325120181 0.56773459911 0.69451647997
          -0.0039368285798 -0.3947173655 -0.70977640152 0.070905603468 -0.058287128806 0.57727313042
          0.19871267676 -0.20983274281 0.076397553086 0.036781862378 -0.48520022631 0.12346731126
          0.54899948835 -2.4380164146 1.0166164637 -1.1321159601 0.65615862608 0.87046808004
          0.62490952015 1.6114208698 -0.76808100939 0.96405822039 0.12329251319 -0.19032211602
          -0.24510273337 -0.55133348703 -0.34368664026 -0.87608921528 -0.36186540127 0.32162007689
          -0.25313028693 -0.40316480398 0.020373856649 0.25450265408 0.4313223362 0.66258633137
          -0.63791048527 -0.71093922853 -0.068126037717 -0.60354626179 0.50291192532 -0.70435267687
          -0.56983721256 0.6726308465 -0.16307130456 0.2668159008 0.10976345092 -0.38820195198
          0.21959768236 0.35393220186 0.20447090268 -0.79226410389 0.092511124909 -0.3713837266
          -0.30752593279 0.085470877588 0.54979640245 0.92612892389 -0.80530321598 1.0339628458
          -0.65313947201 -0.33201214671 -0.73406141996 -2.8552246094 0.27940911055 -0.93990367651
          0.58563810587 1.1215595007 -0.66757804155 2.0733437538 0.51476210356 -0.14925800264
          0.26548439264 0.40028098226 0.47153240442 0.020418772474 -0.66285449266 -0.27089414001
          -0.10888562351 -0.65509831905 0.58352524042 0.31823310256 -0.11006064713 -0.62137311697
          -0.71746128798 -0.18785659969 0.36168238521 -0.0044265561737 -0.066569417715 0.084462717175
          -0.49687996507 0.0019940212369 0.57527303696 -0.17632542551 -0.036984622478 -0.61077958345
          -0.73440992832 0.33220130205 -0.03543985635 -0.62224924564 0.52474862337 -0.1899868995
          -0.62313878536 0.19411827624 -0.4484988153 0.66356283426 -0.74135023355 -0.19164435565
          0.50111287832 1.5276383162 -0.56240868568 -0.037034731358 0.018109759316 -2.5904664993
          -0.64129823446 -1.1218106747 0.33965632319 0.99448400736 -0.20250977576 2.005710125
          -0.19841948152 1.5064516068 0.25923371315 0.32857778668 -0.53875803947 0.014576263726
          0.49535420537 -0.27058073878 0.092989943922 -0.63755577803 -0.18003469706 0.34132608771
          -0.27069854736 -0.57316845655 -0.25650599599 -0.10526886582 -0.19419883192 0.14310964942
          -0.068394012749 0.19829422235 0.054461400956 0.14651295543 0.11272723973 -0.098519578576
          0.12471434474 -0.56430906057 0.032016146928 0.35569551587 -0.23680001497 -0.60452377796
          -0.63678187132 -0.18853212893 0.38970714808 0.18275386095 -0.44105535746 0.58365905285
          -0.023551234975 1.470353961 0.02923229523 1.4764364958 -0.31965196133 -0.12117370963
          0.93605965376 -2.7006368637 0.041285190731 -0.57337254286 -0.087239742279 0.40964969993
          0.0912418589 1.3985725641 -1.057887435 0.93283647299 0.12769381702 -0.29616439342
          -0.041382089257 -0.58032560349 0.0092683527619 -0.8467207551 0.2080514282 0.35845252872
          0.58338087797 -0.26014950871 -0.44639053941 0.44319319725 0.1367855072 -0.64831739664
          -0.7724481225 -0.32899835706 -0.071349583566 -0.2559428215 0.62926745415 -0.32774013281
          -0.27929356694 -0.64449632168 0.30472156405 0.4493227005 -0.72899949551 -0.24728389084
          -0.34962260723 0.39239603281 -0.15167301893 -0.76538091898 -0.11388396472 -0.41572830081
          -0.31576055288 -0.047887191176 0.82616090775 0.90237188339 -0.27924320102 0.88666939735
          0.091350466013 -0.66272222996 0.26222592592 -2.0978410244 0.49614706635 -0.52687519789
          -0.74031507969 0.55329239368 0.24928484857 1.6929759979 -0.1709536314 1.2975329161
          -0.06257365644 0.13224069774 0.40553554893 -0.20661208034 -0.53667259216 -0.48342582583
          0.28390297294 -0.86295604706 -0.3133597374 0.10726289451 -0.72879481316 -0.73563319445
          0.50453525782 -0.23058213294 0.2187166661 0.066281408072 -0.071473442018 0.18059049547
          -0.35984915495 0.0650415048 -0.64515900612 -0.22938081622 0.58788996935 -0.72882294655
          0.17446728051 0.12207535654 -0.42401745915 -0.82862114906 0.39826267958 -0.40458774567
          -0.5622972846 -0.04866451025 -0.13122096658 0.36907285452 -0.067046403885 1.2638627291
          -0.43688240647 1.1980047226 0.75110071898 -0.46787831187 -0.19069887698 -1.9952270985
          0.76516222954 -0.92704927921 0.41920691729 0.22762574255 0.24197147787 1.3613718748
          0.53621679544 0.97028326988 -0.40834644437 -0.20886604488 -0.89552402496 -0.47828620672
          0.39717116952 -0.76354312897 0.27240011096 0.44640520215 0.34296360612 -0.18250745535
          0.50151997805 0.57718074322 -0.80539095402 -0.48558717966 -0.45297434926 -0.1495782584
          -0.071648791432 -0.02687702328 0.31188356876 -0.14747808874 0.66753906012 -0.48045632243
          -0.63740837574 0.58476299047 -0.47722288966 -0.17063473165 -0.40734991431 0.47990095615
          -0.53693634272 -0.68713617325 0.74231123924 -0.32779601216 0.21711158752 0.016885049641
          -0.7795163393 0.93482875824 -0.43574100733 0.88353019953 -0.42016166449 -0.77003484964
          -0.46882247925 -2.3385629654 0.776953578 -0.70479661226 -0.7002478838 0.56086707115
          0.011323921382 1.8470910788 -0.75424367189 1.5157711506 -0.91063278913 0.41593879461
          -0.70907443762 0.21087799966 -0.35324239731 -0.042999394238 0.1523796469 -0.44025757909
          -0.73803144693 0.53455549479 0.083763979375 -0.30739495158 -0.52333670855 0.23887000978
          0.46513515711 0.5797790885 -0.071007169783 0.71758806705 -0.60477030277 0.58188205957
          0.3873873651 0.24462917447 -0.21762131155 -0.29475361109 0.60724771023 0.55137830973
          -0.28564935923 -0.4068454206 0.21647299826 0.031686708331 0.55818718672 0.3552248776
          0.72964382172 0.63249456882 0.53077441454 1.4873054028 -0.18842706084 1.3912950754
          0.71829402447 -0.37615537643 -0.46926873922 -2.0499835014 0.63281428814 -0.95087730885
          -0.0065183229744 0.43403548002 -0.37854704261 1.7418802977 -0.32525095344 1.4830026627
          0.16871698201 0.42865684628 -0.58119893074 0.26753032207 0.38841021061 0.072555616498
          -0.017924342304 -0.32624861598 -0.25030851364 -0.89456349611 -0.3344579041 -0.1664147228
          -0.32681408525 0.39957749844 -0.23740971088 -0.80573415756 -0.075251355767 -0.66757154465
          0.089854724705 -0.7995339036 0.18598917127 0.40778556466 0.19701749086 -0.15397010744
          0.11117260903 -0.87823194265 -0.11779702455 -0.29267823696 -0.53056889772 0.14542162418
          0.42881131172 0.40337780118 -0.35220405459 0.63555675745 0.10322390497 1.4507887363
          0.20684747398 1.3049890995 0.021300656721 -0.47173160315 -0.32465904951 -2.2343862057
          0.32306486368 -1.6512597799 0.47811120749 1.1288055182 -0.95868104696 1.0727956295
          -0.085288472474 0.81600141525 -0.57690918446 -0.2495097369 -0.63977825642 -0.32078447938
          -0.56313437223 -0.49088388681 -0.2807688117 -0.87181138992 0.19117325544 0.1371370852
          -0.75467008352 -0.70441991091 -0.12265683711 -0.1306694895 0.65502327681 0.21126462519
          -0.073326379061 0.28352409601 -0.80293923616 0.21675044298 -0.023187220097 -0.12218482047
          0.61481630802 -0.69518280029 -0.33122864366 0.15299251676 0.14177203178 -0.83737945557
          0.41902333498 -0.41896265745 0.48344117403 -0.18828675151 0.39359655976 -0.052808478475
          -0.14386299253 0.78145235777 0.78044742346 0.6553863883 -0.45602563024 0.2602340579
          -0.026828320697 -2.8766005039 -0.11709165573 -1.6680774689 0.84284323454 1.2307566404
          0.26552844048 1.2415189743 0.061918385327 1.0177701712 0.27300405502 -0.014623209834
          -0.77437967062 -0.047747250646 0.027810316533 -0.14703299105 -0.56644004583 -0.51219266653
          0.60525500774 0.49546512961 0.33313661814 -0.41904357076 0.10303767771 0.15918980539
          0.00034869415686 0.51754283905 -0.070762328804 0.55129402876 -0.14518223703 0.52062660456
          -0.24569831789 0.16557197273 -0.47169435024 -0.413282305 -0.74945938587 0.50662952662
          0.42485025525 -0.48214918375 -0.17622196674 -0.081035174429 0.61781287193 0.076794944704
          -0.459341079 0.16877454519 -0.28976178169 0.97856831551 -0.44817307591 0.83019196987
          -0.82381081581 0.39521515369 0.41260385513 -2.8317189217 1.0597153902 -1.0094885826
          1.012596488 0.68517178297 -0.70273244381 2.2271718979 -0.06067950651 0.45865947008
          -0.73212850094 -0.53918778896 0.60602760315 -0.48736563325 0.53697794676 -0.53981155157
          0.62795168161 -0.91455775499 -0.64691078663 0.14692698419 -0.22573967278 -0.7710518837
          0.27253448963 -0.1933427304 -0.68418246508 0.17835317552 -0.070351921022 0.19156946242
          0.5399941802 0.17895108461 -0.41422986984 -0.18892225623 0.087303973734 -0.7656981349
          0.50444459915 0.15654081106 -0.77242791653 -0.88870018721 -0.68845844269 -0.48086223006
          -0.76899534464 -0.36968752742 0.55080813169 -0.36612021923 -0.16571301222 0.42388373613
          0.53612619638 1.8455374241 -1.0021692514 -0.11743935198 -0.75986766815 -2.128677845
          0.14030472934 -0.91100311279 0.83669960499 0.84041589499 -0.0032333196141 0.98279094696
          -0.36411136389 0.7965720892 -0.26914462447 -0.16374710202 0.1599855423 -0.086735010147
          -0.73395574093 -0.16734071076 0.12561883032 -0.49486365914 -0.39236658812 0.55751019716
          -0.82999455929 -0.2956520319 0.4008693099 0.29017475247 0.1842238456 0.66595470905
          -0.070034310222 -0.88068002462 -0.3253390193 0.66499441862 -0.5393691659 0.29346260428
          0.6956409812 -0.29171338677 0.2552523911 0.56440526247 -0.26344746351 -0.47052037716
          0.59206736088 -0.11069230735 -0.31894174218 0.027673538774 0.088598810136 0.0045446581207
          0.14420516789 0.76743471622 -0.17707404494 0.6159068346 -0.81934785843 0.085998810828
          0.16060674191 -1.9584758282 0.78573274612 -1.3455049992 0.49115264416 0.41245162487
          0.54148846865 2.0396149158 -0.84867095947 0.29604756832 0.056685775518 -0.61749517918
          -0.30277955532 -0.48727679253 -0.44310376048 -0.52406173944 -0.40436163545 -0.78359538317
          -0.18299181759 0.30697900057 0.13673749566 -0.48703339696 0.51444339752 0.10317668319
          -0.56403267384 0.42034834623 -0.068168111145 0.46155270934 0.42516830564 0.41968533397
          -0.65603661537 0.10390457511 -0.27498742938 -0.48751226068 0.046093259007 0.31106004119
          0.26839756966 -0.76343536377 0.30275142193 -0.47173964977 0.14990441501 -0.37985271215
          -0.2342659533 -0.45324876904 0.63663947582 0.27364355326 -0.70805454254 1.6937193871
          -0.48079422116 -0.2977655232 -0.49830788374 -2.3434393406 -0.5937384963 -1.2786633968
          -0.14743576944 0.61868679523 -1.1235933304 2.3938250542 0.2499807775 0.6953690052
          0.23437774181 -0.18261162937 -0.91242527962 -0.062328796834 -0.23476813734 -0.045455280691
          0.58262097836 -0.22684209049 -0.035436920822 -0.7158882618 -0.5437912941 0.10162039101
          0.58213990927 0.71863162518 0.26559063792 -0.53045678139 -0.070348106325 -0.44000124931
          -0.4065271616 -0.53235572577 -0.72288161516 0.71911078691 0.40731099248 0.10072541237
          -0.10261877626 -0.71533250809 -0.72147852182 -0.21223124862 0.095645681024 0.0010202613194
          0.76551419497 0.039125356823 -0.40964949131 -0.02354622446 -0.46202895045 0.67793780565
          0.96894752979 2.0829808712 0.16587853432 -0.039802215993 0.88967382908 -2.1977717876
          -0.35281264782 -1.7789314985 -0.9199847579 0.25932839513 -0.93710172176 2.1266446114
          -0.51494014263 0.39616349339 0.36636957526 -0.50212025642 0.046094357967 -0.35907271504
          -0.085868425667 -0.32041963935 -0.081187680364 -0.49276819825 0.08361376822 0.61006754637
          0.33527734876 -0.091400332749 0.59370446205 0.54617214203 -0.57286375761 -0.70909637213
          -0.069479458034 -0.57395160198 0.43459448218 -0.7059674263 -0.73298341036 0.54848188162
          -0.47194549441 -0.09506650269 -0.21717496216 0.60781168938 -0.05387608707 -0.48147600889
          -0.052692651749 -0.27952334285 -0.19631305337 -0.26543718576 -0.54293620586 -0.35037139058
          0.30203539133 0.38477274776 0.77357232571 1.8327736855 0.93309348822 -0.35302188993
          0.64237642288 -2.6454939842 -0.23608349264 -1.7027792931 0.21328905225 0.54661798477
          -0.79358619452 2.5979239941 0.49348464608 0.92777764797 0.43277868629 0.004779222887
          -0.73638701439 0.11880592257 -0.058019261807 0.19227997959 0.74209594727 0.054276544601
          0.076774045825 -0.41837587953 -0.53148812056 0.49335029721 0.50146812201 -0.49339586496
          0.18558418751 -0.11104635894 -0.067492820323 0.022721095011 -0.32058987021 -0.10704354197
          -0.63738530874 -0.48636570573 0.39779999852 0.49456128478 -0.21007987857 -0.42052102089
          -0.87800836563 0.061619751155 -0.079334050417 0.22845312953 0.59202927351 0.20606590807
          -0.60809755325 0.14540621638 -0.71117168665 0.91035562754 0.62998735905 2.3153066635
          -0.19989587367 -0.042810820043 0.52952444553 -2.5154049397 -0.36784425378 -2.0952117443
          1.1022028923 0.23303817213 -0.90002202988 2.2714307308 -0.51135021448 0.60870110989
          0.32603403926 -0.34528154135 -0.050993081182 -0.21769483387 -0.18626123667 -0.067138805985
          -0.21058580279 -0.18131171167 -0.049971017987 -0.65917474031 0.15077631176 0.25432196259
          0.40498575568 -0.71779704094 -0.65478342772 -0.30687782168 -0.066150046885 -0.14614722133
          0.52341103554 -0.30036172271 -0.53653025627 -0.70737743378 -0.28164604306 0.25755771995
          -0.080145448446 -0.65823477507 0.078302584589 -0.17029556632 0.05078284815 -0.032074872404
          -0.093860290945 -0.13486836851 -0.49955317378 -0.21470847726 0.29807791114 0.59179270267
          0.73506164551 2.0028543472 -1.1011574268 -0.33400335908 0.64817523956 -2.8555130959
          1.0405286551 -1.9621545076 -0.16697743535 0.49369493127 0.81212377548 2.6156992912
          0.21977293491 1.0022957325 0.14189736545 0.10652998835 0.5219374299 0.19985450804
          -0.43119680882 0.37704831362 0.3775370419 0.28677508235 -0.2544529736 -0.17477183044
          -0.82503855228 -0.84134423733 0.30759587884 -0.16534009576 0.11687934399 0.22985066473
          -0.063644096255 0.39680945873 -0.24344527721 0.23502385616 -0.43472990394 -0.15408475697
          0.69906121492 -0.83351349831 0.12924624979 -0.16986744106 -0.50728285313 0.29846787453
          0.30137485266 0.41181910038 -0.66405600309 0.27650982141 -0.31094920635 0.22401280701
          -0.43047657609 0.97781610489 -0.97881424427 2.3473336697 0.17604865134 -0.02891093865
          -0.76752340794 -2.6799719334 0.47773388028 -2.4259088039 0.23363880813 1.3930897713
          0.26931002736 2.1845977306 0.65405207872 0.51583039761 -0.24438641965 -0.39891952276
          -0.63557904959 -0.19616284966 -0.7856836915 0.021646738052 -0.73652559519 0.016726382077
          -0.47403261065 -0.46753528714 -0.16164597869 0.41626289487 0.2336679548 -0.46303936839
          -0.71974778175 0.00014324992662 -0.062978290021 0.1830676496 0.59554541111 0.0052734557539
          -0.35744100809 -0.45323932171 0.040977951139 0.42332687974 0.35252165794 -0.46126961708
          0.61145532131 0.032629601657 0.66190999746 0.057826027274 0.50363272429 -0.12447068095
          0.085857406259 -0.29086750746 -0.85909491777 0.49178129435 -0.43121472001 1.9370261431
          -0.21201698482 0.90895205736 -0.21368855238 -3.0876731873 -0.36466026306 -2.3195586205
          0.33436301351 0.30678412318 -0.56487989426 2.4574282169 -0.93111145496 0.81640326977
          -0.78496748209 -0.038629457355 -0.2645791471 0.2574775815 0.4789686799 -1.1333347559
          -0.15800610185 0.48508390784 -0.65525132418 0.036186479032 0.51834529638 -0.68404918909
          0.22735139728 0.0014647283824 0.091940484941 0.4679453969 -0.060778416693 0.63059878349
          -0.21254597604 0.46873512864 -0.34722572565 0.0067971139215 -0.63892680407 -0.68046343327
          0.5351626277 0.040843859315 0.034082174301 0.49718025327 -0.60615926981 -1.1017062664
          0.13265804946 0.32389998436 0.63567137718 0.061557859182 0.74530380964 0.79962712526
          0.41513434052 2.2360858917 -0.32877317071 -0.14758431911 0.62693870068 -2.9177939892
          0.37944087386 -1.7415837049 0.32067275047 1.025621891 0.48979175091 1.8777618408
          -0.76283890009 0.31210669875 0.27499032021 -0.48263761401 0.0063128937036 -0.16055430472
          0.052621569484 0.11202002317 0.29513081908 0.08998798579 0.64430892467 -0.30230423808
          -0.43594300747 -1.0362299681 0.14851354063 -0.35237550735 -0.73749727011 0.094529181719
          -0.059584096074 0.28092509508 0.62048023939 0.095189169049 -0.26525309682 -0.3512468636
          0.3191819489 -1.0343550444 -0.76607167721 -0.30026176572 -0.4174695015 0.098744623363
          -0.1759429723 0.14038015902 -0.13763019443 -0.099896855652 -0.42827352881 -0.39126887918
          0.57788366079 0.29315847158 -0.64347046614 1.6643432379 -0.30151519179 0.61106365919
          -0.11525169015 -2.2896099091 0.92200654745 -1.784573555 -0.063678048551 1.0379674435
          -0.80507975817 2.0108811855 -0.85405951738 0.61647421122 -0.48926451802 -0.15995380282
          0.17133980989 0.1716401726 -0.48383709788 0.48956680298 0.63289141655 0.41591605544
          0.28543913364 -0.035612683743 0.12251789868 -0.72245055437 0.074911043048 -0.029479395598
          0.006889928598 0.40822157264 -0.057232566178 0.60856968164 -0.11885078996 0.40592876077
          -0.18572385609 -0.033468462527 -0.23523959517 -0.72367674112 -0.40013042092 -0.033159732819
          -0.7532774806 0.42397579551 0.36267617345 0.51456278563 -0.3014549315 0.22567769885
          0.34229919314 -0.078453138471 0.6740911603 0.59847730398 0.66517025232 1.8258247375
          0.08732239157 0.66395902634 -0.66557580233 -2.2878112793 -0.52281910181 -2.4517154694
          -0.61124223471 0.42071124911 -0.20681668818 1.3981450796 -1.0559794903 1.7527518272
          0.31938365102 -0.76438719034 0.26538556814 -0.3749602437 0.50289684534 -0.047243792564
          -0.70429849625 -0.11873105913 -0.15889744461 -0.55946689844 0.6104349494 0.37093105912
          -0.1106691584 -0.55859225988 0.68582928181 -0.095298863947 -0.05477726832 0.077157497406
          -0.7946819663 -0.098859660327 0.0040817782283 -0.56338626146 -0.7188962698 0.36909100413
          0.049102026969 -0.5558103919 0.59114897251 -0.10973316431 -0.62501144409 -0.026176720858
          -0.39405959845 -0.32787954807 -0.46796628833 -0.6917309761 0.88022965193 1.7365869284
          0.062093790621 1.2249499559 0.62792050838 0.081042468548 0.76909708977 -2.8996984959
          -0.40260779858 -2.6298837662 0.74133950472 0.4007371068 0.39259508252 1.4441081285
          0.475956738 1.8227981329 -0.68313837051 -0.67118233442 0.24188442528 -0.29716798663
          -0.24118052423 -0.030422549695 -0.52629995346 -0.075680486858 -0.64806193113 -0.41223186255
          -0.59568285942 0.56499123573 -0.41990119219 -0.33719018102 -0.22956807911 0.089498892426
          -0.052102819085 0.23829096556 0.12615309656 0.087530016899 0.31660196185 -0.33923593163
          0.49262928963 0.56630259752 0.54397851229 -0.40900909901 0.42005699873 -0.068406552076
          0.12861549854 -0.011945379898 -0.36661097407 -0.25736105442 0.54257452488 -0.60732841492
          -0.65670025349 1.8011003733 -0.5397695303 1.2764877081 -0.73846578598 0.078035764396
          0.6355317235 -3.0346872807 -0.54593658447 -2.351334095 -0.19752649963 0.89941608906
          0.63449305296 2.0955824852 0.014372427016 0.79746758938 -0.10113716125 0.034917723387
          0.14120863378 0.37963736057 0.59641933441 -0.96106135845 -0.28952074051 -0.93037432432
          0.5429020524 0.39597287774 -0.10167974979 -0.21196445823 -0.64710211754 0.57924103737
          0.45618370175 -0.58488416672 -0.051075987518 -0.42840704322 -0.5583229661 -0.58733761311
          0.54670363665 0.57757300138 0.0015487781493 -0.21367454529 -0.64546787739 0.3933391571
          0.18686710298 -0.92810815573 -0.70650821924 -0.94734954834 -0.25870478153 0.41271170974
          -0.035660389811 0.089348815382 -0.18608592451 0.7746411562 -0.77530282736 1.9404069185
          0.20753653347 0.61436361074 0.77197080851 -2.7073252201 0.97339439392 -2.6947138309
          0.80580216646 0.58276212215 0.77435052395 1.7337021828 -0.57151228189 2.1164331436
          0.31992706656 -0.33705681562 -0.12463551015 0.032719086856 -0.30419105291 0.37114167213
          -0.20354478061 0.45717224479 -0.033234428614 0.23517890275 0.24710279703 -0.30165350437
          0.62044328451 0.48759573698 -0.51191973686 -0.6797644496 -0.048851676285 -0.54398673773
          0.41404661536 -0.67950260639 -0.71902924776 0.48521101475 -0.34434780478 -0.3045874536
          -0.062312889844 0.2316197902 0.10877316445 0.45731914043 0.20605920255 0.38318908215
          0.017474228516 0.06089361012 -0.44994574785 -0.29024621844 0.41685113311 2.0943155289
          -0.91127449274 1.5880547762 -0.8060785532 0.31378477812 -0.77073174715 -3.0210402012
          0.37725439668 -2.6489386559 -0.53748840094 0.70308673382 0.70643007755 1.9963951111
          0.44786733389 0.73247385025 0.55649352074 -0.044695295393 -0.53485614061 -1.292203784
          0.2858068347 -0.79591447115 -0.2671431005 -0.60682147741 -0.70857280493 -0.80239617825
          0.49876499176 0.29361256957 0.26901388168 -0.58801174164 0.094780541956 -0.18398413062
          -0.045180685818 -0.050073314458 -0.18564589322 -0.18387797475 -0.36260065436 -0.58914881945
          -0.59287065268 0.29193583131 0.61820316315 -0.80467396975 0.1758031249 -0.60627090931
          -0.38095980883 -0.78588068485 0.4373434186 -1.2660168409 -0.67836683989 -0.0035408569966
          -0.60236603022 0.70788764954 -0.83387309313 1.8634008169 0.54777646065 0.4718067348
          -0.18009489775 -2.9257302284 -0.30607306957 -2.2572271824 -0.103693299 1.2889436483
          0.35517135262 2.7429733276 -0.59212201834 1.5867418051 -0.98061823845 -0.85459887981
          0.57308763266 -0.32411563396 -0.79723614454 0.20336703956 -0.38829427958 0.43236488104
          0.1299713105 0.29803818464 0.71621978283 -0.19665117562 -0.10717145354 0.50557333231
          0.67719507217 -0.70812433958 -0.041847087443 -0.55922865868 -0.76168096066 -0.70792090893
          0.021922683343 0.50564068556 -0.80530691147 -0.19796529412 -0.21646310389 0.29550543427
          0.3047350049 0.4327698946 0.71562224627 0.21114455163 -0.66596508026 -0.3020285964
          0.87879258394 -0.82031917572 0.45843952894 1.5665165186 -0.46573650837 2.6261031628
          0.12004417926 1.0857069492 0.50141435862 -2.4874124527 0.71552121639 -2.4617650509
          0.19412654638 1.1459778547 -0.091802477837 2.6433908939 0.076674088836 1.4992829561
          -0.94703543186 -0.86534798145 0.056112222373 -0.30707961321 -0.35491117835 0.22482478619
          -0.63940650225 0.53276121616 -0.75550979376 0.43034604192 -0.73558187485 -0.092043556273
          -0.61099535227 0.64167279005 -0.36800101399 -0.59571766853 -0.037753861398 -0.45383608341
          0.29203405976 -0.59308063984 0.53366357088 0.64441764355 0.6567928195 -0.090971708298
          0.67714899778 0.430529356 0.56257933378 0.5335367918 0.27862474322 0.22966322303
          -0.14025588334 -0.29070037603 0.851978302 -0.83681207895 -0.2055208236 1.4795668125
          -0.0099098393694 2.5377366543 -0.18385511637 0.96361702681 -0.53953099251 -2.6652269363
          -0.49520823359 -2.1947996616 0.090362511575 0.23498961329 -0.8499532938 1.7234609127
          0.59183061123 0.49759918451 0.59590291977 -0.18233773112 -0.60959249735 -1.2876764536
          0.017923472449 -0.65282344818 0.73164623976 -0.31625214219 0.017342539504 -0.40901917219
          -0.48706296086 0.67565476894 0.63818240166 -0.20310924947 0.25643754005 0.13253718615
          -0.033648237586 0.24834614992 -0.32543635368 0.13316810131 -0.7119525075 -0.20353524387
          0.41381421685 0.67417186499 -0.094098314643 -0.41116976738 -0.80988687277 -0.31942093372
          -0.092638984323 -0.6516289115 0.53300768137 -1.2761669159 -0.69535207748 -0.15828253329
          -0.71966487169 0.47780907154 0.75229662657 1.6289253235 -0.088508680463 0.071619585156
          0.66558563709 -2.3529434204 -0.36509278417 -2.8052480221 -0.44968563318 1.0477058887
          -0.12429048866 2.7747447491 -1.2138035297 1.756675005 -0.0070469984785 -0.622579813
          -0.072334244847 0.045908469707 0.025747677311 -0.95989203453 0.25896883011 -0.60412579775
          0.67382144928 -0.70622760057 -0.35918965936 0.44681450725 0.19683308899 -0.47844129801
          -0.72037523985 -0.12352509797 -0.030681241304 0.020856479183 0.65868526697 -0.12351980805
          -0.26281562448 -0.48005178571 0.29225385189 0.44297766685 -0.74430805445 -0.71117252111
          -0.32913041115 -0.60827451944 -0.095103017986 -0.95924896002 0.00019098196935 0.055778790265
          -0.081181742251 -0.60056012869 1.1085230112 1.7404512167 0.034816615283 2.6901996136
          0.46084085107 0.91359001398 0.52095937729 -2.937227726 -0.89166349173 -3.0759224892
          -1.7062000036 0.96404767036 -2.1663479805 2.8901391029 -1.9024332762 2.029042244
          -1.0988895893 -0.31082397699 -1.6458699703 0.34380856156 -0.42097938061 -0.66977900267
          -0.56493169069 -0.3473751545 -0.60058319569 -0.44813600183 -0.52313393354 0.73476558924
          -0.38991326094 -0.16573950648 -0.19135971367 0.23653812706 -0.027342770249 0.41683277488
          0.13688392937 0.23475860059 0.33337435126 -0.16789104044 0.46603477001 0.73124867678
          0.54321664572 -0.45176589489 0.50686913729 -0.34985861182 0.36136522889 -0.6670114398
          1.5896731615 0.35452324152 1.0248066187 -0.29101094604 1.8116481304 2.0165185928
          2.0981347561 2.822000742 1.7261258364 0.85290282965 1.0398718119 -3.1756882668
          -2.0931901932 -3.0066876411 -3.7726328373 0.068999946117 -2.7906472683 2.1716423035
          -3.0109665394 1.3158038855 -2.6133241653 0.72731101513 -1.9095438719 -0.42794421315
          -1.0906374454 0.22951345146 -1.6676954031 0.53958898783 -0.42437762022 0.45596376061
          -0.83046293259 0.0084722293541 -1.1313153505 0.85504621267 0.28888687491 -0.32177129388
          -0.024333102629 -0.16588939726 -0.33779275417 -0.32435759902 1.0842858553 0.85292452574
          0.78279334307 0.0050191595219 0.37628236413 0.45188686252 1.622887373 0.53918933868
          1.0415246487 0.23311533034 1.8602713346 -0.4182870388 2.5546753407 0.74383246899
          2.9333560467 1.303540349 2.7286188602 2.1081690788 3.7986366749 -0.026035584509
          2.2402656078 -3.0685751438 -2.2641744614 -3.7802579403 -2.9774398804 1.0474385023
          -2.7939989567 1.9016143084 -3.7371599674 2.8788502216 -2.003074646 0.50166904926
          -1.8689866066 -0.62413746119 -1.5130485296 0.067673094571 -0.95213061571 0.42546674609
          -1.9843062162 0.36756888032 -1.146099329 -0.060450844467 -0.23378780484 0.87892210484
          -1.0179342031 -0.33169293404 -0.021399762481 -0.16862757504 0.97566688061 -0.33213725686
          0.19172842801 0.87539756298 1.106387496 -0.064117193222 1.9474904537 0.36430102587
          0.911490798 0.42220643163 1.4729483128 0.067254662514 1.8257632256 -0.62043058872
          1.9483500719 0.50817710161 3.6779339314 2.8602519035 2.7406065464 1.8332192898
          3.0050656796 0.96355342865 2.4021670818 -3.8260900974 3.5904529095 -2.7754569054
          2.7834711075 1.7197545767 2.2042753696 1.832384944 1.6790691614 0.78046751022
          1.6586052179 0.36573383212 2.3630478382 -0.80572676659 1.5558952093 -0.022726820782
          0.93522876501 0.39093583822 0.57670682669 0.3683437705 0.35083907843 -0.058772895485
          0.12190742791 0.91997027397 -0.0046395231038 -0.3340703249 -0.019824817777 -0.10731564462
          -0.034592472017 -0.33630943298 -0.15963673592 0.91419744492 -0.38848772645 -0.068592108786
          -0.61428052187 0.35659977794 -0.97383993864 0.37780693173 -1.5972476006 -0.037055425346
          -2.4125008583 -0.81851732731 -1.7132031918 0.35358598828 -1.7434313297 0.74142003059
          -2.2544126511 1.7450492382 -2.7747962475 1.6083651781 -3.4942073822 -2.8501875401
          10.579485893 -0.55273807049 12.015148163 1.6501321793 10.429233551 2.462842226
          9.9197244644 0.7504709363 7.9233870506 -1.9489530325 5.5552334785 -0.93501532078
          5.1687226295 -2.0291583538 4.9906334877 -1.536403656 3.5158426762 -1.5647491217
          2.2109978199 -0.011131605133 2.38931036 -1.0180149078 1.1123765707 -0.37682390213
          -0.015724923462 -0.12698413432 -1.1444275379 -0.37953954935 -2.4237961769 -1.0250555277
          -2.2451739311 -0.022436734289 -3.5544395447 -1.5777455568 -5.0350518227 -1.5521618128
          -5.2150087357 -2.0460503101 -5.6068563461 -0.95218139887 -7.9987521172 -1.9653073549
          -10.017825127 0.70719861984 -10.511162758 2.3693583012 -12.05861187 1.5168248415
          -10.54586792 -0.64066064358 18.371372223 0.039816807956 19.98383522 2.9694941044
          17.224565506 1.276688695 14.663898468 -0.909034729 11.185173988 -1.5600097179
          9.3587064743 -2.7450859547 7.9254393578 -1.713544488 6.7658920288 -1.2912464142
          5.7760295868 -1.3915860653 3.6097409725 -1.7668555975 2.7924466133 -2.7624902725
          2.0104036331 -2.2167949677 -0.010917354375 -2.0107028484 -2.0336835384 -2.2196969986
          -2.8181629181 -2.7675292492 -3.6380209923 -1.7755283117 -5.8097658157 -1.4024544954
          -6.8053879738 -1.3047440052 -7.9742183685 -1.7284880877 -9.4190235138 -2.7594156265
          -11.266763687 -1.5739033222 -14.778640747 -0.94430613518 -17.340646744 1.1938307285
          -20.070238113 2.8582692146 -18.398452759 -0.039110898972 21.864290237 -1.0110064745
          23.032150269 1.614423871 20.57901001 2.1132555008 16.834917068 -1.4048825502
          13.765357971 -1.961524725 11.276230812 -3.249253273 10.449597359 -2.3825900555
          8.6670303345 -3.878828764 7.0161552429 -4.0295548439 5.4873423576 -2.7633986473
          2.842199564 -3.6701681614 1.3693516254 -3.184217453 -0.0067291799933 -3.0200064182
          -1.383967638 -3.1859099865 -2.8601968288 -3.674077034 -5.509885788 -2.7719836235
          -7.0463175774 -4.0393185616 -8.705657959 -3.890540123 -10.498655319 -2.3949472904
          -11.335682869 -3.2595396042 -13.848016739 -1.9713400602 -16.947454453 -1.4347685575
          -20.698215485 2.0472064018 -23.122518539 1.5293216705 -21.904026031 -1.0559751987
        </DataArray>
        <DataArray type="Float64" Name="Stress" NumberOfComponents="3" ComponentName0="sigma_xx" ComponentName1="sigma_yy" ComponentName2="sigma_xy" format="ascii" RangeMin="1.1042241398" RangeMax="40.383559962">
          0.10482563119 0.90006881087 0.65897487624 -1.2701317121 0.83829361339 0.77424128894
          -0.55483164485 0.84907290103 1.587421832 0.63627444526 0.63962529625 2.082467804
          0.35867547388 0.24072476091 2.2263696085 0.28020778449 0.17970843157 2.4750434561
          0.44861420985 0.15218700086 2.7753797373 -0.77676609878 -0.054540338091 3.0277054802
          -0.21184292815 -0.02683833999 3.2350039727 0.50846941582 0.064540482511 3.394314701
          -0.23398123602 -0.029702967031 3.4986561298 0.62707287059 0.079606489551 3.5774505012
          -9.6311751689e-06 -9.2548999642e-05 3.6048150781 -0.62707668023 -0.079643097606 3.577538213
          0.23398387889 0.029728363181 3.4987615361 -0.5084624478 -0.064473524585 3.3942651783
          0.21183014825 0.026857167497 3.2348685937 0.77670912552 0.054563353113 3.0275623349
          -0.44856862094 -0.15208734272 2.775423056 -0.28024732134 -0.17964093239 2.4750928989
          -0.35870828043 -0.24072871907 2.2264324237 -0.63627126922 -0.63969202334 2.082529917
          0.55475934666 -0.84921381864 1.5874779746 1.2701118644 -0.83849223912 0.77430589302
          -0.10484911613 -0.90025628212 0.65903421772 -0.28426034937 0.76388164478 0.74497774299
          -0.081162754859 1.0123123442 1.4229041992 -0.91484584756 0.73521176968 1.7134926991
          -0.069417671687 0.54244834521 2.1963812407 -0.20857268482 0.23624207127 2.2899942976
          -0.20749672314 0.15796176038 2.5498222304 -0.040542307492 0.14430319858 2.8800197225
          -0.79641332657 -0.0090710462153 3.1325774124 -0.36265985708 -0.0079169009116 3.3581826422
          0.21329751984 0.057138768774 3.5512976339 -0.28211377615 -0.030563111745 3.6716040819
          0.38489444598 0.053367387596 3.7523775721 8.8362293058e-07 1.8913908238e-05 3.7649087613
          -0.38489389197 -0.05334786915 3.7523861686 0.28211200193 0.030552736945 3.6716227209
          -0.21329589051 -0.057113059737 3.5514425732 0.36266785007 0.0079992180528 3.3583261695
          0.79639378414 0.0091988380812 3.1327287633 0.040508405963 -0.14416166447 2.8800533586
          0.20746041643 -0.15789528079 2.5496256917 0.20860077408 -0.2362347268 2.289800654
          0.069441987698 -0.54239320858 2.1961768562 0.91478065221 -0.73536698239 1.7135443241
          0.081089000035 -1.0125719222 1.4229605744 0.28424760628 -0.76414156762 0.74500026842
          -0.92984578764 0.80943905195 0.83894308776 -0.81481029061 0.89959854041 1.5442430007
          -1.2596077089 0.60776237071 1.8212548649 -0.67473479932 0.42696764692 2.33709786
          -0.64272506428 0.22474902319 2.1391387352 -0.57595768438 0.18923663384 2.4519105383
          -0.4011812865 0.18979864702 2.8362486331 -0.16396685419 0.16975043381 3.1141275498
          -0.46467097861 0.02646575436 3.362918836 -0.09247839574 0.040631355602 3.5827376308
          -0.31545638069 -0.026093301727 3.7159948104 0.1106257154 0.030393433505 3.8176977734
          -1.5088851683e-06 -1.1869431513e-05 3.8427911542 -0.11062682524 -0.030387728717 3.8177207998
          0.31544733562 0.026044543878 3.7160161419 0.092477413205 -0.040592574628 3.5827633841
          0.46467505183 -0.026368903723 3.3629476454 0.16397673402 -0.16958885512 3.1141623945
          0.40120305175 -0.18964186883 2.8362957301 0.57596959792 -0.18912660383 2.4519711356
          0.64273782807 -0.22471418653 2.1392012918 0.67476982925 -0.42691493145 2.3369883671
          1.2595817605 -0.60793344579 1.8213006603 0.81477750858 -0.89982827669 1.5442647678
          0.92982153714 -0.80963964288 0.83894298495 -1.6203580518 0.91806659384 0.75689776179
          -1.7970526656 -0.41167834388 1.3220640094 -1.5139137652 -0.14258848373 1.9520759592
          -1.3018063702 -0.0076992731883 2.1743159337 -1.0515477957 0.14066162786 2.3794069139
          -0.92102993438 0.12377699348 2.7186228109 -0.75750501932 0.12001881798 3.1311960908
          -0.5502205104 0.11037298781 3.4196789328 -0.56615938844 0.030746501881 3.667291186
          -0.33308078763 0.030677119588 3.9021225046 -0.33111437433 -0.0071258553147 4.0431337238
          -0.046249093154 0.017871536065 4.1484311607 -7.9806447934e-06 -5.0647732645e-05 4.1775086208
          0.046244364105 -0.01789160685 4.1484248266 0.3311112026 0.007131090094 4.0431423277
          0.33308526437 -0.030601255738 3.9021311885 0.56615899973 -0.03068224616 3.6673248019
          0.55022402743 -0.11026370347 3.4197056335 0.75751608617 -0.11992286154 3.1312151964
          0.9209927574 -0.12372212964 2.7186195149 1.051522589 -0.14065415471 2.3793947607
          1.3017556699 0.0076408620499 2.1743033653 1.5138519728 0.14244511079 1.9520720013
          1.797011174 0.41148007 1.3220652473 1.6203209866 -0.91824110509 0.75689209073
          -2.2325175438 1.0429331628 1.2279641588 -2.5051280222 -0.28108292539 1.1503368002
          -2.2118216741 -0.11787311753 1.8370949899 -1.7716281101 -0.00024082792177 2.1365148445
          -1.4358301308 0.13972419273 2.3721072466 -1.2429830343 0.16087491199 2.717199873
          -1.040318237 0.17903452941 3.0996973207 -0.88830411474 0.1566014998 3.3720450336
          -0.72412668636 0.10100991855 3.6147888913 -0.52476917927 0.059748742225 3.8355971811
          -0.37059222414 0.017545721121 3.9813437318 -0.16211061172 0.011197019457 4.0728023428
          3.110245224e-06 1.9358175907e-05 4.104327645 0.16211329181 -0.011180338519 4.0728153404
          0.37058751762 -0.017575014473 3.9813457233 0.52476665246 -0.059764469114 3.8355877894
          0.72412864557 -0.10099772445 3.6147736866 0.88830780564 -0.15656760552 3.3720215511
          1.0403225055 -0.17898254325 3.099669961 1.24297226 -0.16084925285 2.7171543807
          1.4358250794 -0.13973084651 2.3720499756 1.7716143527 0.00019434194253 2.1364596977
          2.2118223194 0.11777462644 1.8370628887 2.50511763 0.28092641813 1.1503234185
          2.2324954898 -1.0430755637 1.2279563142 -2.9989435125 -0.47632853011 0.74288375352
          -3.0371291614 -0.21530290922 1.351823645 -2.6989443396 -0.073355644091 1.9645781282
          -2.1879356778 0.054473735423 2.1801884563 -1.7973230011 0.20535896962 2.3498254871
          -1.5524275418 0.24873467561 2.6931506913 -1.3392282881 0.30696575306 3.0657576461
          -1.142599631 0.28176391919 3.3493834602 -0.91037216474 0.21745230553 3.5976460504
          -0.67361498605 0.13785633239 3.811885193 -0.45354816115 0.059775793391 3.951778299
          -0.20003639048 0.046195244087 4.0276609796 9.6378792486e-06 6.1279889242e-05 4.0492204751
          0.2000430921 -0.046152633636 4.0276647231 0.45354671828 -0.059784967457 3.9517769011
          0.67361453762 -0.13785918363 3.8118839641 0.91038336713 -0.21738107817 3.5976369435
          1.1426091845 -0.28171422548 3.3493478781 1.3392414841 -0.30690756514 3.0657073576
          1.5524272079 -0.24871652882 2.6930782683 1.797326626 -0.20536062591 2.3497449014
          2.1879713518 -0.054416456532 2.1801095073 2.6989354624 0.073286395964 1.9645240605
          3.0371038239 0.21516579994 1.3517901387 2.9989223376 0.47618652976 0.74286421791
          -3.5477529673 -0.48607642365 0.95334914458 -3.5664210735 -0.18178325247 1.5348346104
          -3.1778828259 0.0038685199415 1.7570854689 -2.6071027609 0.1237120012 2.0964513608
          -2.1543725949 0.27854313937 2.3281031048 -1.8532319271 0.32409076531 2.6687504088
          -1.5788435859 0.38738123413 3.027960069 -1.3404795095 0.36359795108 3.3049927869
          -1.0717422757 0.27156755548 3.5563130073 -0.79902651919 0.14030809544 3.7880356202
          -0.53325285271 0.017943715338 3.9203267069 -0.24177202794 -0.00039218805638 3.980676113
          -5.2090505109e-07 -3.3120295013e-06 3.9980646498 0.24176922158 0.00037434460711 3.9806712275
          0.53325813746 -0.017910113648 3.9203207587 0.7990314613 -0.14027667231 3.788018464
          1.071749663 -0.27153163491 3.5562846456 1.3404776537 -0.36358403534 3.3049551067
          1.5788398678 -0.38737355599 3.0279089111 1.8532438487 -0.32408743467 2.6686770892
          2.1543800686 -0.27854087068 2.3280314934 2.6071486358 -0.1236211829 2.0963669865
          3.1778654184 -0.0039057778984 1.7570322578 3.5664327945 0.18172083349 1.53479669
          3.5477570171 0.48600092895 0.95332571326 -3.8400933276 1.0334957157 1.0540034451
          -4.0769516646 -0.21133385635 1.0925045615 -3.6151752241 0.033446998581 1.8287803094
          -2.9792614093 0.18345515217 2.1367844407 -2.476895921 0.36308104955 2.3367487853
          -2.150394747 0.41678804397 2.6869460895 -1.8519831568 0.43124700986 3.0289615715
          -1.5520995158 0.40976786611 3.3116920695 -1.2664411397 0.30893293897 3.5539779717
          -0.95446242029 0.15889599049 3.7820613025 -0.65758360941 -0.0023344547537 3.9240489409
          -0.28796588624 -0.015577133819 3.9830382424 -8.2190951937e-06 -5.2258916988e-05 4.0120011097
          0.28796302195 0.015558922041 3.9830316869 0.65757852957 0.0023021560086 3.9240367514
          0.95446541416 -0.15887695479 3.7820515352 1.2664293645 -0.30901885747 3.5539505771
          1.5520917855 -0.40984273222 3.3116526752 1.8519703979 -0.43129681484 3.0289088074
          2.1503835985 -0.41680855752 2.6868795944 2.4768726211 -0.36310890586 2.336673288
          2.979228767 -0.18358011236 2.1367016383 3.6151581264 -0.033414127046 1.8287261574
          4.0769527733 0.21139748105 1.0924631032 3.8401105229 -1.0334180102 1.0539777714
          -4.4290948177 0.82802201546 1.1356919612 -4.6884828246 -0.3010052919 1.2071448929
          -4.132629916 0.02009027094 1.9404749236 -3.4010540613 0.24009260436 2.1965735101
          -2.817398331 0.44363336059 2.3641120584 -2.4337817063 0.48166543827 2.6972467007
          -2.0814301235 0.4740724718 3.0246538541 -1.7524353 0.41770669933 3.3122592093
          -1.4353010306 0.30879104283 3.5272813605 -1.0670529272 0.16381460865 3.7179795844
          -0.76320650113 -0.0022837168138 3.8670132484 -0.34410321156 -0.021364766492 3.9425525164
          -4.5464258183e-06 -2.8907228945e-05 3.9575632487 0.34409807965 0.021332136665 3.9425577802
          0.76319989693 0.0022417257932 3.8670195705 1.0670461712 -0.1638575648 3.7179874576
          1.43528959 -0.30886378459 3.5272843773 1.7524247197 -0.41777397098 3.3122491372
          2.081419305 -0.4741412581 3.024620553 2.4337750248 -0.48170792085 2.6971897604
          2.8173944983 -0.44365668645 2.3640393359 3.4010362087 -0.24018268296 2.1964981517
          4.1326479889 -0.019994410323 1.9404230602 4.6885017472 0.30114179831 1.207112639
          4.4291128001 -0.82788034735 1.1356735468 -5.004925922 0.52837517054 1.1115646991
          -5.1317047841 0.66519699662 1.2609457061 -4.6260091253 -0.029801987769 1.6749141553
          -3.8102958482 0.26194694629 2.1024538295 -3.1361978343 0.5160891688 2.3599559543
          -2.7325918898 0.5384033861 2.6708785081 -2.3371737752 0.5179300598 3.004851692
          -1.9560109598 0.42280983618 3.2814941892 -1.5930626949 0.29925666389 3.504283596
          -1.1943439482 0.15727199754 3.6836105904 -0.81356865855 0.018307039846 3.8183124604
          -0.39116143533 -0.0090447925282 3.9141283226 -6.2860970152e-08 -3.9967845401e-07 3.9334876
          0.39116335726 0.0090570126191 3.9141299555 0.81356474617 -0.018331915618 3.818318198
          1.1943373852 -0.15731372657 3.6836251174 1.5930518519 -0.29932560655 3.5043044918
          1.9559946725 -0.42291339459 3.2815087111 2.3371597943 -0.51801895326 3.0048482638
          2.7325851463 -0.5384462628 2.6708575268 3.1361980317 -0.51608796714 2.3599186463
          3.8103059727 -0.26189586108 2.1024137981 4.6260258927 0.029890923727 1.6748841464
          5.1317256223 -0.6650466709 1.2609311366 5.0049437219 -0.5282349398 1.1115583897
          -5.687070695 0.067019483828 1.0245318252 -5.8278945405 0.42695326649 1.2458167043
          -5.1790595433 0.44504042454 1.7110688319 -4.3563922455 0.22184150124 2.1378775347
          -3.587262828 0.52927984891 2.3555156534 -3.1161269256 0.56436031771 2.6639885961
          -2.6602497292 0.52140613671 2.9839282591 -2.2125686189 0.41617477159 3.2682702841
          -1.7761013109 0.26610449547 3.4911760711 -1.3303375541 0.15192507884 3.6635127915
          -0.87203042391 0.061473076564 3.7964140299 -0.43668734446 0.033132591184 3.9064859972
          -7.3570699014e-06 -4.677795298e-05 3.9189550794 0.43668780528 -0.033129661168 3.9064766361
          0.87203554758 -0.061440499085 3.7964110032 1.3303451376 -0.15187686113 3.663517446
          1.776092599 -0.26615988793 3.4911934218 2.2125515883 -0.41628305557 3.2682998907
          2.6602341055 -0.52150547583 2.9839644575 3.1161161942 -0.56442855049 2.6640320859
          3.5872598591 -0.52929791769 2.3555502684 4.3563990025 -0.22180740722 2.1379056832
          5.1790754408 -0.44495610223 1.7110888376 5.8279136877 -0.42681513965 1.2458282678
          5.6870892661 -0.066873177534 1.0245351041 -6.1291168059 1.0540521242 0.82583234102
          -6.5033171363 0.082842169829 1.1543069735 -5.7906168975 0.25695920345 1.6691271271
          -4.8009290054 0.39854968261 2.1279292062 -3.9758379347 0.54628063974 2.3473283503
          -3.4459700103 0.57943417165 2.6744389704 -2.9425951963 0.50578566604 2.9788319105
          -2.4487760635 0.41062810621 3.2734471472 -1.9517035461 0.28249533337 3.5197747951
          -1.475340954 0.16344135717 3.6930881582 -0.9386708532 0.10647456495 3.8372017609
          -0.47673537211 0.037852122283 3.9425982676 2.3243489476e-06 1.4778755569e-05 3.9840158385
          0.47673776549 -0.037836904611 3.9426113146 0.93867403262 -0.1064543494 3.8372132828
          1.4753370987 -0.16346586995 3.6930777611 1.9516978454 -0.28253157973 3.5197916142
          2.4487637237 -0.41070656503 3.2734859005 2.9425813549 -0.50587367293 2.9788972111
          3.4459572875 -0.57951506604 2.6745253468 3.9758294189 -0.54633246746 2.3474218456
          4.8009074805 -0.39865829081 2.128004665 5.7906289913 -0.25689505653 1.6691773377
          6.5033317806 -0.082736526803 1.154333013 6.1291327118 -1.0539268153 0.8258425546
          -6.752598478 0.25262619018 1.2243767727 -7.0028023587 0.69809403575 1.4963482143
          -6.349803517 0.046397802317 1.9187473998 -5.2478464874 0.34880189851 2.1292809299
          -4.2952762815 0.60189791817 2.3592765687 -3.7385924018 0.56393845218 2.6875504248
          -3.1804637183 0.49543066993 2.9983862493 -2.6378833689 0.37185672148 3.2879218413
          -2.1233345193 0.24765609078 3.5276368552 -1.6091364787 0.15293111231 3.7238790037
          -1.0508041991 0.072155545274 3.8716948655 -0.53199975323 0.025324230063 3.9671651017
          -9.2474640666e-07 -5.8797407337e-06 4.0062539441 0.53200093659 -0.025316705971 3.9671692426
          1.0508024993 -0.072166352797 3.8717039745 1.6091390062 -0.15291504157 3.723881623
          2.1233337728 -0.24766083675 3.5276497148 2.6378767131 -0.37189904077 3.2879526836
          3.180452848 -0.49549978582 2.9984450519 3.7385789246 -0.56402414336 2.6876316462
          4.2952634278 -0.60197614576 2.3593645975 5.2478154522 -0.34895849273 2.1293604332
          6.3498050928 -0.046389443772 1.9187986145 7.0028085522 -0.6980493558 1.496378258
          6.7526101789 -0.25253400846 1.224393418 -7.2162597265 0.81034938056 0.84014946791
          -7.6379874178 0.026875542826 1.2555871147 -6.7899326632 0.34747577166 1.809144918
          -5.5935340482 0.52248172732 2.1015313106 -4.6023274328 0.65772537195 2.3588031836
          -3.9603547494 0.63391066418 2.6833339282 -3.3614518371 0.54147424199 3.0118906368
          -2.8095714641 0.43034203762 3.2989593949 -2.2680303654 0.31785594936 3.5410223238
          -1.7040155475 0.20545610263 3.7491836835 -1.1346465081 0.12721857978 3.9046134545
          -0.5673531781 0.070429633494 4.0054559584 5.9761704221e-06 3.799790654e-05 4.0560439534
          0.5673570151 -0.070405236979 4.0054439379 1.1346434526 -0.12723800711 3.9045894158
          1.7040145073 -0.20546271667 3.7491684309 2.2680352963 -0.31782459726 3.5410265872
          2.8095729485 -0.43033259926 3.2989775041 3.3614516903 -0.54147517556 3.0119225606
          3.9603489247 -0.63394769947 2.6833813081 4.6023211277 -0.65776374502 2.3588559671
          5.5935260093 -0.52252228918 2.1015892824 6.7899245217 -0.34751895534 1.8091867174
          7.6379817454 -0.026916462984 1.2556194735 7.2162621572 -0.81033023109 0.84017201652
          -7.5477829844 1.1799450288 1.0940423608 -7.966608158 0.37764238813 1.5308055292
          -7.0614709906 0.57621287899 1.7027864355 -5.9080301468 0.40812077208 2.2112668601
          -4.8215257241 0.7079189283 2.3660019418 -4.2254667547 0.66086731883 2.704807874
          -3.6334637301 0.56566121516 3.0188708498 -3.0455086218 0.43992554006 3.3054142706
          -2.4328774773 0.34443408486 3.574121173 -1.8368239377 0.24749380032 3.777490457
          -1.2270670838 0.17707327315 3.9351076241 -0.59765564514 0.10506544919 4.0294023104
          4.1781827064e-06 2.6565881505e-05 4.0667342782 0.59765627415 -0.1050614498 4.0293967868
          1.2270664299 -0.1770774304 3.9350979089 1.8368274363 -0.24747155507 3.7774734009
          2.4328903722 -0.34435209648 3.5741233845 3.0455189407 -0.43985993006 3.305418737
          3.6334674833 -0.56563735122 3.0188842477 4.2254632673 -0.66088949299 2.7048269372
          4.8215202268 -0.70795238534 2.3660267999 5.9080404504 -0.40806878336 2.2112991098
          7.0614571387 -0.5762863516 1.702814853 7.9665935035 -0.3777481048 1.5308292906
          7.5477731498 -1.1800225069 1.0940620822 -8.1864845528 -0.18925961159 0.60417562396
          -8.3766932383 0.57237120884 1.2295123272 -7.3928445753 0.71263377214 1.9095821327
          -6.2236614264 0.47110722803 2.1621470002 -5.1031438086 0.75785749143 2.3561631209
          -4.5031702602 0.70528735389 2.6898618599 -3.8702794535 0.64290161584 3.0388760146
          -3.2361358977 0.51910180667 3.3246588008 -2.5525135345 0.44897380367 3.575846368
          -1.9166816243 0.34171015426 3.8001034387 -1.2597877588 0.26916115257 3.9331001971
          -0.64369339839 0.17906318966 4.0294827376 -1.0061339762e-06 -6.3972281153e-06 4.0577829997
          0.64369171157 -0.17907391477 4.0294825873 1.2597964419 -0.26910594391 3.9331016985
          1.9166896104 -0.34165937692 3.8000977646 2.5525230716 -0.44891316437 3.575844939
          3.2361447386 -0.51904559391 3.3246454656 3.870284851 -0.64286729699 3.0388664051
          4.5031677889 -0.70530306677 2.6898625356 5.1031389218 -0.75788723218 2.3561695243
          6.2236513109 -0.47115826743 2.1621623828 7.3928297991 -0.71271214667 1.9095923441
          8.3766782184 -0.57247956102 1.2295186489 8.1864728017 0.18916703413 0.60417948948
          -8.5024064101 1.3636475036 0.7753170172 -8.885896224 0.58953063247 1.4446414513
          -7.8596345643 0.74001422366 1.7553585232 -6.6052690147 0.49947418474 2.1313116748
          -5.4353641858 0.78969197455 2.3412453697 -4.7856294931 0.76076876717 2.6720085986
          -4.1583386472 0.67721305293 3.019509117 -3.4775919926 0.54800467715 3.3057884196
          -2.7497386463 0.49581515124 3.577746752 -2.0592463346 0.39355813759 3.7996700548
          -1.3829344507 0.31382892169 3.9472388668 -0.68711903651 0.21589927313 4.043513369
          -5.5882736776e-06 -3.5531531134e-05 4.0816676742 0.68710610876 -0.21598147075 4.0435333458
          1.382941203 -0.31378598908 3.9472378107 2.0592527833 -0.39351713557 3.7996717879
          2.7497443048 -0.49577917305 3.5777469731 3.4776012864 -0.54794558489 3.3057661139
          4.1583438011 -0.67718028323 3.0194861101 4.785627025 -0.76078445997 2.6719883535
          5.4353620802 -0.78970478915 2.341226427 6.6052608024 -0.49951562153 2.1313012003
          7.8596218874 -0.74008146356 1.7553442311 8.8858829111 -0.58962667078 1.4446277911
          8.5023975091 -1.3637176271 0.77530549885 -9.1662283919 1.1014438632 0.84518173305
          -9.499444011 0.44077251487 1.6040918213 -8.3876966157 0.67192001084 1.9010526021
          -7.0195098068 0.4985129585 2.195927924 -5.7631040364 0.81964705126 2.3631876565
          -5.0659305166 0.76702948915 2.6802635283 -4.3747579661 0.68252576929 3.0292942446
          -3.7026279916 0.58350473694 3.3260863903 -2.9452982723 0.53250549404 3.5864723697
          -2.2230707865 0.42685522658 3.7823647218 -1.4805959118 0.34431776536 3.9223814763
          -0.74325874226 0.22240264145 4.0110221741 -7.4122144546e-07 -4.7128337601e-06 4.0393165841
          0.74324356147 -0.22249916443 4.0110488524 1.4806142833 -0.34420095497 3.922381657
          2.2230726812 -0.42684317938 3.7823849165 2.9452974518 -0.53251071083 3.5864845111
          3.7026289526 -0.58349862667 3.3260769605 4.3747616669 -0.68250223869 3.0292714121
          5.0659341433 -0.76700642972 2.6802226574 5.7630997785 -0.81967296526 2.3631463642
          7.0195035458 -0.49854454953 2.1958879828 8.3876874148 -0.67196881364 1.9010189113
          9.4994366919 -0.44082531431 1.604069051 9.1662254328 -1.1014671752 0.84516805995
          -9.8135102691 0.55691250931 0.82252529195 -9.9809759705 1.2003864241 1.1090285893
          -8.9513972101 0.50591474591 1.6553646145 -7.436189392 0.44890402402 2.0731742009
          -6.1157402174 0.83570774331 2.3172463179 -5.3537487621 0.79373112888 2.649636279
          -4.6548748159 0.69708652841 3.0080742983 -3.9456197885 0.60377638505 3.328540852
          -3.1454554918 0.53691213429 3.6009323389 -2.3630759264 0.45700055955 3.8062467625
          -1.5521233467 0.34044297068 3.938697283 -0.76107682741 0.19307570576 4.0233914229
          6.494525429e-07 4.1293925268e-06 4.0134430765 0.76108634456 -0.19301519345 4.0233938121
          1.5521288683 -0.3404078627 3.9387093107 2.3630792784 -0.45697924667 3.806265624
          3.1454493382 -0.53695126013 3.6009452755 3.945621164 -0.60376763886 3.3285408452
          4.6548769653 -0.69707286157 3.0080564906 5.3537446906 -0.79375701657 2.6495946923
          6.1157302629 -0.83576832655 2.3172009672 7.4361858358 -0.44892196738 2.0731316952
          8.9513938626 -0.50593250182 1.6553373553 9.9809760075 -1.2003861571 1.1090146134
          9.8135130762 -0.55689039484 0.82251904099 -10.343902911 1.3563082382 0.66137112793
          -10.69573549 0.63138295027 1.6485830983 -9.6019467483 0.21008393928 1.7047362491
          -7.8660971888 0.59567995225 2.1174662833 -6.5003590336 0.87469319832 2.3041760689
          -5.6684416484 0.83717115501 2.6325412158 -4.9091671686 0.68873330029 2.9815044251
          -4.1576982059 0.5984205805 3.3318881936 -3.3318763546 0.53024980519 3.6135103723
          -2.4589313178 0.4305488084 3.8124262509 -1.6347583488 0.30658978419 3.9313375667
          -0.78390150934 0.17504676588 3.97954855 1.7992230069e-06 1.1439891797e-05 3.9816339446
          0.78391072699 -0.17498815792 3.9795430836 1.6347690242 -0.30652190764 3.9313396873
          2.4589343757 -0.4305293658 3.8124333503 3.3318660531 -0.53031530422 3.6135119595
          4.15769694 -0.59842862949 3.3318895485 4.9091611517 -0.68877155734 2.9815031678
          5.6684358564 -0.83720798209 2.6325291651 6.5003532695 -0.87472827892 2.3041640123
          7.8660942715 -0.595694672 2.1174505064 9.6019480757 -0.21007689884 1.7047320299
          10.695737864 -0.63136582837 1.6485819173 10.343906434 -1.3562804825 0.66137239622
          -11.031485264 0.17809389438 1.146690954 -11.222018507 0.99621980272 1.5809155514
          -10.044249375 0.4106205285 1.7198497877 -8.3168824423 0.65862636529 2.1279428781
          -6.8784884426 0.92253535849 2.2921680128 -5.9880089872 0.89816199847 2.6148425811
          -5.1454098327 0.78244942461 2.9637210118 -4.3107521038 0.6892984656 3.3173722616
          -3.4500652876 0.57256549977 3.6109184746 -2.5473523967 0.45381246616 3.8156613828
          -1.6709518917 0.31930393863 3.9344924966 -0.82928586888 0.15988129038 3.9777135527
          9.3220816896e-06 5.9271999726e-05 3.9784162688 0.82930035119 -0.15978920843 3.9777065398
          1.6709554018 -0.31928162097 3.9344869444 2.5473546979 -0.45379783418 3.8156568423
          3.4500566134 -0.57262065278 3.6109182514 4.3107547379 -0.68928171737 3.3173771112
          5.1454126383 -0.78243158574 2.9637264614 5.9879967661 -0.89823970308 2.6148492153
          6.8784806816 -0.92258259212 2.2921836056 8.3168798263 -0.65863956451 2.1279513102
          10.04424969 -0.41061885906 1.7198562137 11.222020353 -0.99620648823 1.5809202615
          11.03148808 -0.17807170402 1.1466948582 -11.559277 0.332283902 0.86056523066
          -11.779025204 1.1180523673 1.4425063494 -10.594204591 0.49064821146 1.6897552398
          -8.7986248455 0.49162416752 1.9961288384 -7.2295307323 0.99006270114 2.2752763399
          -6.2555016013 0.96023829989 2.5983472543 -5.363671088 0.82019285459 2.9522605419
          -4.4237399204 0.72574752473 3.2898059645 -3.5784978521 0.55811636226 3.5851597179
          -2.6527022728 0.44225083418 3.8119478744 -1.7845764 0.26496838269 3.9299893779
          -0.8915889709 0.16705970967 3.9826554691 3.2790507578e-06 2.0848984729e-05 3.9802866491
          0.89160384463 -0.16696513902 3.9826519681 1.7845827982 -0.26492770159 3.9299846945
          2.6527099959 -0.44220172879 3.8119404921 3.5784940809 -0.55814034039 3.5851548101
          4.423743063 -0.72572754357 3.2898092827 5.3636728246 -0.82018181291 2.952269629
          6.2554990341 -0.96025462269 2.5983670209 7.2295219859 -0.99011593192 2.2753036568
          8.7986238512 -0.49162918444 1.9961568712 10.594203173 -0.4906557319 1.6897744832
          11.77902462 -1.1180565784 1.4425172827 11.559277 -0.332283902 0.86056875081
          -12.026570662 1.6244765813 1.1522109592 -12.45785869 0.98040935049 1.2603521076
          -11.199561508 0.44902681223 1.6409319802 -9.2187263581 0.75273429428 2.0294599923
          -7.5812571744 1.0533137981 2.2688689075 -6.5240527652 1.0325319189 2.6107299142
          -5.5471727749 0.87987726337 2.951621731 -4.5845607977 0.76074075074 3.2816980617
          -3.7051262252 0.61844117812 3.5761011366 -2.7953688368 0.44608103365 3.7968462141
          -1.8742122073 0.27867143422 3.9287828385 -0.95216663184 0.16246768677 3.9885855414
          3.7077261755e-06 2.3574602969e-05 3.9961377345 0.95218026832 -0.16238098281 3.9885829705
          1.8742209543 -0.27861581886 3.9287715604 2.7953741563 -0.44604721099 3.7968255991
          3.7051230466 -0.61846138857 3.5760801554 4.5845658025 -0.76070892894 3.2816911365
          5.5471752517 -0.87986151514 2.9516220089 6.524047635 -1.032564538 2.6107510458
          7.5812524218 -1.0533427228 2.268893791 9.218724045 -0.75274596543 2.0294868926
          11.199557576 -0.44904766891 1.6409509199 12.457854318 -0.98044088759 1.2603631968
          12.026566998 -1.6245054408 1.1522166234 -12.52202254 1.1119377405 0.66487930342
          -12.964890515 0.66759207767 1.5552684585 -11.666720081 0.31488114789 1.8932437023
          -9.617189415 0.71214328555 2.0451636876 -7.8865268221 1.0905219553 2.2751306811
          -6.8250027684 1.05684839 2.6246552637 -5.8041769243 0.9028559077 2.9611737133
          -4.8382368979 0.76769908259 3.2775771585 -3.898856641 0.6430043108 3.5661876694
          -2.9159374925 0.45686561088 3.7833659842 -1.9587954436 0.27970545122 3.9218701946
          -0.96716314246 0.1477230058 4.0099394418 1.7347986402e-06 1.1030269778e-05 4.0395479511
          0.96715871016 -0.14775118729 4.0099237623 1.9588177779 -0.27956344431 3.9218705366
          2.9159377669 -0.45686386571 3.7833445298 3.8988594994 -0.64298613639 3.5661640559
          4.8382426661 -0.76766240705 3.2775626196 5.8041798823 -0.9028371 2.9611584428
          6.8250030361 -1.0568466876 2.6246533813 7.8865265259 -1.0905237577 2.2751374266
          9.6171862267 -0.71215937252 2.0451683634 11.666714183 -0.31491243536 1.8932485931
          12.96488377 -0.66764073668 1.5552747166 12.522015354 -1.1119943558 0.66488623598
          -12.933177935 1.8205802037 0.83030270325 -13.370661077 1.1529859927 1.2617486532
          -12.089378354 0.62203283585 1.8065460529 -10.037984144 0.65896302114 2.0665331549
          -8.245540184 1.1499370369 2.3022089203 -7.1269943015 1.1012201711 2.6348047882
          -6.0928242797 0.90232455517 2.9773968677 -5.0392493786 0.77751322376 3.2914471541
          -4.0561631884 0.62838965527 3.5491251588 -2.9952459719 0.48604657618 3.7488907975
          -1.9735774721 0.2822209383 3.8919225193 -0.99302074153 0.17250518363 3.9742030107
          -5.2153430276e-07 -3.3160148099e-06 4.0133721284 0.99301985304 -0.17251083282 3.9741822724
          1.9735849693 -0.28217326925 3.8919207422 2.9952480676 -0.48603325169 3.7488729142
          4.0561716645 -0.62833576211 3.5491040743 5.039257032 -0.77746456116 3.2914330826
          6.0928300845 -0.90228764679 2.9773863789 7.1269987822 -1.101191682 2.6347959122
          8.2455408324 -1.1499330906 2.302196349 10.037980677 -0.65898051454 2.0665287377
          12.089371301 -0.62207024591 1.806543572 13.370652996 -1.1530442851 1.2617474721
          12.933168153 -1.8206572661 0.83030397155 -13.612746321 0.52575513416 0.91230426
          -13.914554473 1.4454310452 1.473620409 -12.546435037 0.76512318484 1.6970043447
          -10.443097619 0.72481807563 2.1817320334 -8.5675866255 1.154189141 2.2998135961
          -7.4238273518 1.1503442176 2.6415431489 -6.3174216611 0.97460056886 2.970174441
          -5.2400163761 0.78734794663 3.3007085223 -4.1716966923 0.66857266658 3.5682345917
          -3.0922304843 0.5172129608 3.7447370994 -2.0519819451 0.34784268583 3.8866706155
          -1.0087254556 0.19904717995 3.9864584877 -6.6756310131e-06 -4.2445202554e-05 4.0411306064
          1.0087268943 -0.19903803219 3.9864613986 2.0519823433 -0.347840154 3.886662186
          3.0922328225 -0.51719809397 3.7447293434 4.1717033045 -0.6685306248 3.568214182
          5.2400231795 -0.78730468943 3.3006926161 6.3174255151 -0.97457606405 2.9701613087
          7.4238305699 -1.1503237567 2.6415218192 8.567590181 -1.1541675016 2.2997896725
          10.443094611 -0.72483325242 2.181718454 12.546428935 -0.76515555135 1.6969936699
          13.914547463 -1.4454816125 1.4736123259 13.61273851 -0.52581667542 0.91229732744
          -14.180481729 0.44161220471 0.94716638035 -14.455187547 1.4225021304 1.6205546079
          -13.008165685 0.73845957477 1.8869917892 -10.804510373 0.70255916403 2.1682967306
          -8.834968053 1.1729225676 2.3291548674 -7.6360093271 1.1813232383 2.6450427532
          -6.5021725919 1.0195017616 2.9829178932 -5.3822604574 0.8263362152 3.3195222993
          -4.2990241632 0.70779051929 3.5646821298 -3.2303930635 0.54183905823 3.7565207865
          -2.1463117416 0.3887304758 3.8910881977 -1.0630633074 0.22399131788 4.0013836722
          2.6852667925e-06 1.7073567859e-05 4.0424957726 1.0630528779 -0.22405763136 4.0013877616
          2.1463123875 -0.38872636888 3.8910836652 3.2303925688 -0.54184220331 3.7565132179
          4.2990223675 -0.70780193661 3.5646592079 5.3822640454 -0.82631340223 3.3195052051
          6.5021778831 -1.0194681189 2.9828918036 7.6360103989 -1.1813164235 2.6450184715
          8.8349707858 -1.1729059356 2.329127297 10.804511994 -0.70255098173 2.1682691
          13.008163952 -0.73846876466 1.8869710816 14.455185118 -1.4225196559 1.6205413268
          14.180478912 -0.44163439508 0.94715641943 -14.586518095 1.5292843289 0.84094885569
          -15.05577386 1.080377113 1.1472069029 -13.512506898 0.5709671501 1.6611339067
          -11.18356686 0.63542418193 2.120695234 -9.1177494643 1.21707702 2.310062936
          -7.8730357528 1.2190140173 2.6458742439 -6.7220875621 1.0606021582 2.9792355712
          -5.5567503907 0.8779736014 3.3074665253 -4.4247664192 0.74152266492 3.5553889996
          -3.3437338726 0.60328405507 3.7515328641 -2.2395097677 0.45047050001 3.8876399615
          -1.13063494 0.26427885555 3.9830028287 3.5144806425e-06 2.2345912185e-05 4.0389395565
          1.1306393079 -0.26425108305 3.9829993425 2.2394978068 -0.45054655061 3.8876465654
          3.3437239791 -0.60334696065 3.7515296462 4.4247655671 -0.74152808305 3.5553773828
          5.5567505148 -0.87797281191 3.3074598672 6.7220850071 -1.0606184035 2.979225826
          7.8730331599 -1.2190305033 2.6458593622 9.1177465614 -1.2170946873 2.3100360544
          11.183566575 -0.63542562362 2.1206765765 13.512507416 -0.57096440161 1.6611198053
          15.05577597 -1.0803618902 1.1471949095 14.586521537 -1.5292572125 0.84094143135
          -15.257943251 0.58356611112 0.64742058728 -15.701831586 0.49616794326 1.1364733066
          -13.930335202 0.82610551943 1.7404126584 -11.555792863 0.77301853514 2.1785187873
          -9.4453932731 1.2197836706 2.3195179687 -8.1649081839 1.1993710686 2.6487949988
          -6.960770669 1.0650918676 2.9993389977 -5.7759247125 0.93464557246 3.3045552025
          -4.6071127374 0.77274247055 3.5655664942 -3.4785384561 0.58829858836 3.7480107755
          -2.3273614774 0.44774688869 3.8768098212 -1.1628087091 0.25086079528 3.9689070447
          3.2584965511e-07 2.0718405584e-06 4.0020734264 1.1627989165 -0.25092305899 3.9689119763
          2.3273709892 -0.44768641053 3.8768048954 3.4785372266 -0.58830640603 3.7480140035
          4.6071133846 -0.77273835583 3.5655741517 5.7759223864 -0.9346603626 3.3045535373
          6.9607724936 -1.0650802664 2.9993301473 8.1649103542 -1.1993572691 2.6487780573
          9.4453937436 -1.2197808071 2.3194911602 11.555794198 -0.77301180272 2.1784976952
          13.93033812 -0.8260900451 1.7403989133 15.70183503 -0.4961430962 1.1364683197
          15.257948744 -0.58352283426 0.64741971146 -15.7729883 0.77791997746 1.0661802935
          -16.23118121 0.65179779139 1.0530361449 -14.516682922 0.35698928602 1.7928143358
          -11.942444234 0.86081814382 2.0985469666 -9.7623111686 1.2936094259 2.3307560813
          -8.4697529725 1.2559812269 2.6848546332 -7.2415398183 1.1218779507 3.0180633922
          -6.0072629018 0.98016239773 3.3179010689 -4.7970072733 0.8362490005 3.5575524738
          -3.6232846592 0.65035455555 3.7369221078 -2.4166011773 0.45769741652 3.8635036021
          -1.2063787964 0.22195535569 3.9355441361 -6.693731566e-06 -4.2560280719e-05 3.9382198022
          1.2063728035 -0.22199345993 3.9355566894 2.4166081476 -0.45765309738 3.8635008548
          3.6232849674 -0.65035259573 3.7369305747 4.7970016722 -0.83628461324 3.557568299
          6.0072595934 -0.98018343327 3.3179113241 7.2415373354 -1.1218937371 3.0180673552
          8.4697481649 -1.2560117948 2.6848512223 9.7623123042 -1.2936025146 2.3307420431
          11.942446964 -0.86080437347 2.098540215 14.51668787 -0.3569630421 1.7928104253
          16.231186884 -0.65175685754 1.0530358128 15.772993516 -0.77787888338 1.0661833135
          -16.30894926 0.56242943955 0.70179040528 -16.769124394 0.53552142073 1.5020472249
          -15.018148438 0.32788502731 1.8251885899 -12.34112739 0.90392503802 2.1650237803
          -10.114088179 1.3958835382 2.3321023898 -8.8020818386 1.3382463032 2.7011274447
          -7.5455437687 1.1729546215 3.0432193639 -6.2770330421 1.0235891557 3.3195278523
          -4.9992134339 0.84710309439 3.5580755397 -3.7807164097 0.65374491779 3.7308505984
          -2.5340149182 0.45747529001 3.8572594831 -1.2725947712 0.20262718209 3.9362757261
          3.675456204e-06 2.336942921e-05 3.9597590104 1.2725951758 -0.20262460948 3.936278616
          2.5340066643 -0.45752776987 3.8572587008 3.7807139729 -0.65376041143 3.7308631482
          4.9992108011 -0.84711983446 3.5580947502 6.2770290279 -1.0236146791 3.3195415113
          7.5455432034 -1.1729582156 3.0432297313 8.8020817856 -1.3382466399 2.7011380375
          10.114085236 -1.3959014539 2.3321050009 12.34113099 -0.90390687394 2.1650300602
          15.018154709 -0.32785176851 1.8251931425 16.76913074 -0.53547563543 1.5020504421
          16.308954812 -0.56238569813 0.70179128953 -16.757814139 1.4106709686 0.98254759523
          -17.28226681 1.2003335167 1.3286116896 -15.464892261 0.74916536176 1.8272973568
          -12.793997127 0.90883858517 2.0708944126 -10.479226048 1.503626625 2.3404464902
          -9.138463722 1.4528734946 2.6967037715 -7.8163042046 1.2586277018 3.0423292372
          -6.5163880225 1.0626610334 3.2985302191 -5.232900791 0.83216356076 3.5395781782
          -3.9594737363 0.63049660651 3.7243103176 -2.6719475679 0.42511977358 3.8642568505
          -1.3501308497 0.18815414518 3.9507220456 -1.0233382115e-06 -6.5066010436e-06 3.9731112563
          1.3501282244 -0.18817083752 3.9507170956 2.6719634126 -0.42501902904 3.8642536794
          3.9594782567 -0.63046786452 3.7243223423 5.2328951437 -0.83219946709 3.5395884664
          6.5163880806 -1.0626606642 3.2985440089 7.8163044322 -1.2586262547 3.0423412673
          9.138455969 -1.4529227898 2.6967162166 10.479229198 -1.5036074536 2.3404556126
          12.793997617 -0.90883611046 2.0709033163 15.464896925 -0.74914062543 1.8273031408
          17.282270318 -1.2003082093 1.3286135146 16.75781662 -1.4106514256 0.98254759523
          -17.202243301 1.828416546 0.51546093388 -17.756904409 1.5393452699 1.1443352417
          -15.9051484 0.9810354666 1.8178748481 -13.171754203 1.0571664396 2.1186318183
          -10.84203332 1.6293489834 2.3463556583 -9.444940142 1.5832776507 2.682026327
          -8.1250642904 1.3284863477 3.011818792 -6.7773833617 1.0822061486 3.2709210045
          -5.4479266292 0.82982850908 3.5323075026 -4.1315116156 0.63094238012 3.7221960268
          -2.8057484301 0.42279385551 3.8835458373 -1.3961902433 0.21499230211 3.9959685656
          3.7769650022e-06 2.4014830196e-05 4.0354249075 1.396184391 -0.21502951269 3.995960697
          2.8057493148 -0.42278823034 3.8835449502 4.1315090874 -0.63095845472 3.7221927546
          5.447925454 -0.82983598082 3.5323132631 6.7773833402 -1.0822062846 3.2709215604
          8.1250582535 -1.3285247316 3.0118182543 9.4449348334 -1.5833114039 2.6820262385
          10.842031536 -1.6293598409 2.346357569 13.171757373 -1.0571504444 2.1186261992
          15.905153889 -0.98100635414 1.8178712413 17.756909397 -1.539309285 1.1443347537
          17.202248007 -1.8283794737 0.5154618097 -17.77810431 1.742321672 0.7061926962
          -18.355785066 1.5746464524 1.4593574264 -16.422378985 1.0443034908 1.8049923102
          -13.640903396 1.1275965562 2.1736309017 -11.23106093 1.7094809305 2.3655376915
          -9.7848011021 1.6520037534 2.6863347942 -8.3809128148 1.3838451429 3.0196719518
          -7.0094976807 1.11185926 3.2765111636 -5.6337162814 0.84702578454 3.5143158546
          -4.2572216892 0.63276705099 3.7330472018 -2.8384719832 0.42796830576 3.9001240938
          -1.4444027672 0.22923265621 4.0299369874 -1.8953653294e-08 -1.204961314e-07 4.0448989663
          1.4444054844 -0.22921537985 4.0299364658 2.8384708661 -0.42797540853 3.900125295
          4.2572159199 -0.6328037337 3.7330485635 5.6337110458 -0.84705907361 3.5143084797
          7.0094969104 -1.1118641578 3.2765126912 8.3809136514 -1.3838398238 3.0196685323
          9.7847941097 -1.6520482122 2.6863337842 11.23105608 -1.7095104451 2.3655367756
          13.64090415 -1.1275927533 2.173627617 16.4223844 -1.04427477 1.8049901331
          18.355790254 -1.5746090327 1.4593560894 17.778107556 -1.742296099 0.70619182038
          -18.414061353 1.1685263441 0.81429169593 -19.013499699 1.2045620889 1.1632505804
          -16.990842075 0.89784498186 1.7194803612 -14.133498066 1.045496631 2.193556628
          -11.643411934 1.7253529407 2.3678807856 -10.123797733 1.669356802 2.6893337989
          -8.6836269699 1.3987330974 3.0160880852 -7.2291455625 1.1477506993 3.2756675751
          -5.7728661896 0.907523636 3.5300934919 -4.3343507879 0.67697643653 3.7666162169
          -2.885366738 0.47457527656 3.9331488707 -1.4301894405 0.25344664011 4.0469769334
          4.566359703e-06 2.9034004457e-05 4.0920549247 1.430185852 -0.25346945645 4.0469733994
          2.8853656338 -0.47458229712 3.9331388964 4.334350752 -0.67697666498 3.7666100369
          5.7728654598 -0.90752827598 3.5300921129 7.2291471144 -1.147740832 3.2756627637
          8.6836240384 -1.3987517361 3.0160866124 10.123792304 -1.6693913193 2.6893369274
          11.643407741 -1.7253784593 2.3678948411 14.133500408 -1.0454848121 2.1935648709
          16.990846176 -0.89782322798 1.7194851995 19.013503783 -1.2045326271 1.1632496762
          18.41406614 -1.1684886326 0.81428993586 -18.964686629 1.6252395839 0.83412519318
          -19.54286385 1.5716902359 1.3520098331 -17.498839486 1.1107600206 1.9282909249
          -14.543927492 1.158576554 2.1911390507 -12.005982383 1.7665448131 2.3710731942
          -10.436794904 1.6932180858 2.6998429167 -8.9486246538 1.4456116192 3.0327926853
          -7.4177037899 1.2369474034 3.30737596 -5.9245721969 1.0054631613 3.5708803428
          -4.3954186228 0.75174592472 3.7796457891 -2.9119108292 0.50877776257 3.9582242599
          -1.4414228485 0.28187788094 4.0538814704 -1.7769554889e-06 -1.1298272246e-05 4.1066179427
          1.4414203672 -0.28189365773 4.0538803286 2.9119231828 -0.50869921528 3.958230117
          4.3954187449 -0.75174514854 3.7796343261 5.9245709943 -1.0054708081 3.5708725113
          7.4177018331 -1.2369598453 3.3073747959 8.9486252797 -1.4456076399 3.0327937456
          10.436792698 -1.6932321084 2.6998535033 12.005979751 -1.7665608293 2.3710880899
          14.543925292 -1.158587654 2.1911530325 17.498840817 -1.1107529639 1.9283001355
          19.542866998 -1.5716675247 1.3520155683 18.964690998 -1.6252051591 0.83412568496
          -19.531622924 1.6258141118 0.70013627178 -20.090526918 1.5647905441 1.4461688048
          -18.096189976 0.51621587254 1.8009541629 -15.001539976 0.92754767348 2.1788714617
          -12.316643437 1.7825828083 2.3875722551 -10.723135385 1.7297674097 2.7109587249
          -9.1727146557 1.4662576944 3.0475824502 -7.6341558736 1.2450971601 3.3302466427
          -6.0611090331 1.061670249 3.5801172758 -4.4660559042 0.84540995766 3.7993784571
          -2.9681714807 0.5495040685 3.9582079479 -1.4789657639 0.29282133157 4.0571505857
          2.0072936733e-06 1.2762866089e-05 4.095542262 1.4789688355 -0.29280180167 4.0571555392
          2.9681617167 -0.54956614979 3.9582155785 4.4660536219 -0.84542446907 3.7993719009
          6.0611134678 -1.0616420519 3.5801106343 7.6341577989 -1.2450849186 3.3302507974
          9.172713733 -1.4662635613 3.0475924212 10.723131186 -1.7297941118 2.7109698519
          12.316641471 -1.7825947768 2.3875895113 15.001543759 -0.92752858243 2.1788894583
          18.096192548 -0.51620222951 1.8009673186 20.090528837 -1.5647766995 1.446178069
          19.53162552 -1.6257936646 0.70014193604 -20.099977726 1.0580078308 1.18933157
          -20.638199437 1.1954136115 1.4704235811 -18.453374428 0.92145865321 1.9166708872
          -15.328448967 1.1154026145 2.1452173217 -12.616337105 1.8141321335 2.3835010816
          -10.973043045 1.7674724701 2.7215711131 -9.3871132391 1.5366342171 3.0694659176
          -7.7925862536 1.3274112502 3.3526605694 -6.1846465127 1.1259738925 3.5988420504
          -4.5857016121 0.84308779418 3.7845848851 -3.0432524642 0.54942630055 3.9254878881
          -1.5031543649 0.29765337988 4.0294491649 -5.6814211556e-06 -3.6123768903e-05 4.0615135327
          1.5031528807 -0.29766281679 4.0294516598 3.04324941 -0.54944571955 3.9254838871
          4.5857038182 -0.84307376778 3.7845761718 6.1846503412 -1.1259495496 3.5988331042
          7.7925890187 -1.3273936693 3.3526617876 9.3871133253 -1.5366336692 3.0694709814
          10.973046076 -1.7674532026 2.721575542 12.616337502 -1.8141297152 2.3835101043
          15.328448508 -1.1154049311 2.145226484 18.453373477 -0.92146369675 1.9166790811
          20.638198367 -1.1954213367 1.4704304832 20.099975756 -1.058023352 1.1893397709
          -20.593189718 1.4835340996 0.87606054418 -21.124274353 1.5065382557 1.4444041942
          -18.917083908 1.1072831878 1.6893208808 -15.729142008 0.97407248113 2.2175908231
          -12.87587273 1.8833133317 2.3741699778 -11.19369712 1.8465090013 2.7313650757
          -9.5908773495 1.6130681664 3.0689586557 -8.003238445 1.3632033355 3.3747254034
          -6.3443653078 1.1307404781 3.6161813501 -4.7291939528 0.86912828211 3.7729937064
          -3.1211454917 0.58919203726 3.9003750547 -1.5612813137 0.30545232208 3.9687494885
          -5.6686276306e-06 -3.6042434056e-05 4.00457871 1.5612717738 -0.30551297881 3.9687405973
          3.1211471187 -0.5891816924 3.9003744658 4.7291970745 -0.86910843333 3.7729890584
          6.3443712003 -1.1307030123 3.6161691216 8.0032454272 -1.363158941 3.3747203149
          9.5908764952 -1.6130735982 3.0689545341 11.193702825 -1.8464727264 2.7313597755
          12.875876343 -1.8832913441 2.3741569755 15.729141878 -0.97407313867 2.2175870669
          18.917082374 -1.1072913235 1.6893193456 21.12427094 -1.5065628753 1.4444057423
          20.593184723 -1.4835734505 0.87606357255 -21.095299057 1.3212098752 0.52470467326
          -21.614647967 1.4347179454 1.3737187507 -19.287512248 1.0894985659 1.7665121702
          -15.979574897 1.2413485601 2.1510762669 -13.130630505 1.9236631884 2.3539600355
          -11.378432207 1.8955750304 2.6988718761 -9.7905386893 1.6837165865 3.0520638206
          -8.152177618 1.4236741142 3.3555503553 -6.5010478279 1.1507203406 3.60285506
          -4.8645070785 0.84772746765 3.7431751894 -3.2161971749 0.58052978175 3.8421221111
          -1.6158039797 0.30572390225 3.9015102803 8.7235693626e-07 5.5466831135e-06 3.9223491632
          1.6158045715 -0.30572013938 3.9015226508 3.2161910544 -0.58056869734 3.8421366949
          4.8645118168 -0.84769734062 3.7431763957 6.5010583044 -1.1506537288 3.6028359016
          8.1521818349 -1.4236473023 3.3555419234 9.7905359377 -1.6837340812 3.0520484799
          11.378431106 -1.8955820323 2.6988525774 13.130634986 -1.9236359191 2.3539389744
          15.979576148 -1.2413422493 2.1510570684 19.287512978 -1.0894946912 1.7664978885
          21.614646729 -1.4347268819 1.3737101795 21.095294491 -1.3212458435 0.52469861652
          -21.511660906 2.1953542785 0.81829330708 -22.21214881 0.98022754261 1.2589141937
          -19.779183832 0.8369862209 1.81038491 -16.36997171 1.1574929801 2.0486112703
          -13.410244323 1.9291858092 2.3179502621 -11.639348221 1.9138009873 2.6702400962
          -9.9962595584 1.7285529002 3.0290625985 -8.3180503664 1.4540789277 3.342516457
          -6.6567602762 1.1519343004 3.5557381698 -4.9646496228 0.84287728615 3.7343751337
          -3.3025803617 0.55915755136 3.8396040313 -1.6456697035 0.30798185939 3.8803929304
          4.7899395695e-07 3.0455770963e-06 3.9025558262 1.6456792755 -0.30792099848 3.8803830441
          3.3025562226 -0.55931103293 3.8396216796 4.9646374488 -0.84295469132 3.734384699
          6.656768806 -1.1518800659 3.5557163943 8.3180503742 -1.4540788782 3.3425059095
          9.9962580989 -1.7285621797 3.0290508122 11.639343283 -1.9138323819 2.6702232824
          13.410241813 -1.9292010842 2.317938699 16.369975937 -1.1574716506 2.0485975016
          19.779186952 -0.83696967242 1.8103726475 22.212152143 -0.98020349398 1.2589004963
          21.511663642 -2.1953327274 0.81828071025 -21.986397399 2.3841607267 1.0406692851
          -22.716132919 1.1300432117 1.1311543484 -20.227314763 0.9556093617 1.8787331721
          -16.733029625 1.2193283814 2.153466422 -13.691436924 2.0042210393 2.3572303889
          -11.866319211 1.9448036584 2.6748810382 -10.189384096 1.7589862214 3.0102692077
          -8.4909777163 1.4859134822 3.3203127589 -6.7867904976 1.1581834238 3.5441596259
          -5.1028120743 0.82989113126 3.7267428584 -3.4089876774 0.55896044534 3.8232441401
          -1.6993321509 0.28822725279 3.8637345507 2.84998469e-06 1.8120879523e-05 3.8788353878
          1.6993361923 -0.28820155609 3.8637404709 3.408968761 -0.55908072006 3.8232514104
          5.1028106301 -0.82990031363 3.7267524576 6.7867988012 -1.1581306275 3.544151192
          8.4909721255 -1.4859490297 3.3203055352 10.189379077 -1.7590181331 3.0102596673
          11.866324215 -1.9447718414 2.6748740827 13.69144301 -2.0041839975 2.3572300859
          16.733030381 -1.2193245667 2.1534584615 20.227317278 -0.95559602056 1.8787261042
          22.716137082 -1.1300131789 1.1311467533 21.986404445 -2.3841052153 1.0406614767
          -22.636534128 1.9586519693 1.1994835751 -23.372457844 0.8763230105 1.4713776096
          -20.787368253 0.79467731948 1.9089047022 -17.175310354 1.1565706099 2.2466392464
          -14.01297074 1.9973172232 2.3839748833 -12.163071376 1.9321455692 2.6979667007
          -10.407525714 1.7607077857 3.0338122891 -8.6850338524 1.502391556 3.3110274359
          -6.9645957241 1.1693288994 3.5195020956 -5.2458048739 0.83463721668 3.6953791747
          -3.5342721985 0.51474497224 3.8166767225 -1.7717220235 0.26242180187 3.8721753063
          3.717440458e-06 2.3636359268e-05 3.8719708518 1.7717268194 -0.26239130797 3.8721827062
          3.5342632988 -0.51480155844 3.8166853629 5.2457983139 -0.83467892659 3.6953902006
          6.964601633 -1.1692913287 3.5195060421 8.6850285931 -1.5024249962 3.3110350025
          10.407519548 -1.7607469916 3.0338212489 12.163076125 -1.932115371 2.6979711782
          14.012970696 -1.9973174958 2.3839780444 17.175313914 -1.1565526514 2.2466420594
          20.787371689 -0.79465909665 1.9089075214 23.372463398 -0.87628294067 1.4713818316
          22.636543063 -1.9585815761 1.1994883552 -23.144537701 2.4396624946 1.2468185136
          -23.923998291 1.2331200959 1.2262342626 -21.297541584 1.0148555763 1.9253942475
          -17.586377295 1.2677497134 2.2080863043 -14.402547788 2.0530768976 2.4263600747
          -12.51778551 1.9796402053 2.7259807805 -10.71419632 1.7567775475 3.0531788778
          -8.9433849068 1.4950657701 3.32553983 -7.1540482836 1.1651031257 3.5406107218
          -5.3852023371 0.82706980261 3.7148961996 -3.6324169324 0.50894946451 3.8220185489
          -1.8167266574 0.23977244064 3.8700732538 1.4335535129e-06 9.1148830294e-06 3.8921273153
          1.8167404903 -0.23968448739 3.8700826586 3.6323960866 -0.50908200657 3.8220198153
          5.385202546 -0.82706847465 3.7148993348 7.1540572559 -1.165046078 3.5406339448
          8.9433824016 -1.495081699 3.3255511538 10.714188588 -1.7568267117 3.0531980803
          12.517793545 -1.9795891204 2.7260044771 14.402548112 -2.0530749224 2.426378672
          17.586378433 -1.2677439693 2.2081056921 21.297544302 -1.014841161 1.9254101168
          23.924002344 -1.2330908616 1.226248448 23.144541989 -2.4396287091 1.2468302346
          -23.674630511 2.3305546598 1.2038272234 -24.482818814 1.2105270399 1.4322462605
          -21.824488962 1.0147305899 1.86141955 -18.041138643 1.3128731663 2.271182311
          -14.807531012 2.0845424805 2.4538864138 -12.869927026 2.0236644285 2.7479957483
          -10.993711942 1.7846500926 3.0790581716 -9.159224171 1.5192777125 3.3485840485
          -7.3322494238 1.1901133736 3.5519614832 -5.5316875352 0.82855288799 3.7289250272
          -3.7161959284 0.49076518796 3.831559393 -1.8554554746 0.24906969605 3.8876272838
          3.0524597947e-06 1.9408254076e-05 3.9014037718 1.8554603964 -0.24903840192 3.8876300853
          3.7161921319 -0.49078932736 3.8315741896 5.5316949928 -0.82850547097 3.728938068
          7.332259896 -1.1900467892 3.5519959663 9.1592256647 -1.519268215 3.3486030248
          10.993708453 -1.7846722784 3.0790855916 12.869931533 -2.0236357691 2.7480256496
          14.807533364 -2.0845281669 2.4539084484 18.041138929 -1.3128717247 2.2712099416
          21.824488444 -1.0147333384 1.8614402576 24.482816704 -1.2105422627 1.4322595417
          23.674627069 -2.3305817762 1.2038371843 -24.250195105 1.584764387 1.0939374365
          -24.963445719 1.8571381749 1.5868456879 -22.372674539 0.80541891026 1.7887547942
          -18.523822808 1.2471436468 2.321885841 -15.196662675 2.1201718404 2.4943059696
          -13.186996712 2.0673688678 2.7929512554 -11.292973824 1.7759208543 3.0912261178
          -9.4252434258 1.4548907586 3.3584822624 -7.5389145828 1.1118154342 3.5634972423
          -5.6812822745 0.7630937668 3.7304241913 -3.8165293146 0.43663657287 3.8351111027
          -1.9172619254 0.20174945776 3.9029971154 -7.1906710584e-07 -4.5719619269e-06 3.9278506759
          1.9172663509 -0.20172131877 3.902988304 3.8165256777 -0.43665969718 3.8351219234
          5.681294615 -0.7630153026 3.7304361579 7.5389239289 -1.1117560092 3.5635292111
          9.4252474064 -1.454865449 3.3584913551 11.292974344 -1.7759175472 3.091233165
          13.186996543 -2.0673699431 2.7929560117 15.196666121 -2.1201508666 2.4943142058
          18.523822219 -1.2471466209 2.3218897865 22.372672054 -0.80543208955 1.788757917
          24.963441236 -1.8571705196 1.586849754 24.25018814 -1.584819259 1.0939400723
          -24.648477132 1.7070646582 0.86615456102 -25.417278134 2.0030707911 1.6236905327
          -22.82446372 0.91959441324 1.9505325964 -18.936735579 1.3321539398 2.3071803998
          -15.583915632 2.1638912248 2.4806719941 -13.537733734 2.087452086 2.7982156449
          -11.587759797 1.7704356217 3.0898540072 -9.6359138949 1.4205096682 3.3637587159
          -7.722833265 1.079754532 3.5748762025 -5.8400046235 0.71927079912 3.7442667296
          -3.9280326352 0.40917768349 3.865459311 -1.9493951777 0.20991326437 3.9447168473
          -1.7112765821e-06 -1.0880661078e-05 3.9565718008 1.9493939613 -0.20992099886 3.9447232261
          3.9280391667 -0.40913615519 3.8654680158 5.8400020095 -0.71928741979 3.7442692851
          7.7228374183 -1.0797281239 3.5748801813 9.6359171166 -1.420489184 3.3637577807
          11.587756468 -1.7704567871 3.0898520554 13.537736874 -2.0874321229 2.7982136669
          15.583916175 -2.1638879183 2.4806690916 18.936735239 -1.3321556553 2.307175724
          22.82446222 -0.91960236714 1.9505277056 25.417275274 -2.0030914271 1.6236842746
          24.648471639 -1.7071079351 0.86614762846 -24.966683229 2.7361109247 1.2917139771
          -25.935880234 1.6800617808 1.6269994415 -23.193647978 1.3889345618 1.7482013819
          -19.350610464 1.327580748 2.2748485125 -15.935477061 2.2212633589 2.4692677432
          -13.848355173 2.142680988 2.7988529959 -11.862662554 1.7811622449 3.0719443371
          -9.8965848632 1.4054447808 3.335922869 -7.9301287891 1.0589852367 3.5453834251
          -5.9610642864 0.70976670904 3.7236402188 -4.0305438734 0.41630223418 3.8847964739
          -2.0020334896 0.21059633547 3.9718716734 2.829052405e-06 1.798779967e-05 4.0035426231
          2.0020301923 -0.2106173006 3.9718708371 4.0305482547 -0.41627437667 3.8848046327
          5.9610682864 -0.70974127601 3.7236380883 7.9301272481 -1.0589950346 3.5453790112
          9.8965844573 -1.4054473619 3.3359162354 11.862664808 -1.7811479129 3.0719342156
          13.848357631 -2.1426653591 2.7988393062 15.935477426 -2.2212611394 2.4692551586
          19.350610034 -1.3275829168 2.2748309875 23.193647196 -1.3889387082 1.7481875843
          25.935878875 -1.6800715812 1.6269872923 24.966682383 -2.7361175939 1.2917044086
          -25.394176954 2.9805507267 0.89386441414 -26.411338658 1.8914489808 1.5566652422
          -23.713077648 0.94000476523 1.8195512024 -19.701373145 1.4059385427 2.1830352781
          -16.22919324 2.2682521029 2.417228901 -14.1254575 2.1365726397 2.737697055
          -12.116184502 1.7761820579 3.0115206173 -10.111561235 1.4037620064 3.287572842
          -8.1067604348 1.0920611898 3.5318712724 -6.0978619635 0.75372121495 3.7028556441
          -4.1130307301 0.44712044134 3.882204801 -2.0275662633 0.23667212922 3.9742275832
          3.811550644e-06 2.4234749387e-05 4.0080161697 2.0275708702 -0.23664283766 3.9742285877
          4.1130349928 -0.44709333804 3.8822121162 6.097867253 -0.7536875831 3.70285372
          8.1067621366 -1.0920503694 3.5318681639 10.111562493 -1.4037540059 3.2875686486
          12.116179261 -1.7762153824 3.0115101374 14.125458796 -2.136564398 2.7376762502
          16.229190065 -2.2682714256 2.4172111089 19.701370515 -1.4059518115 2.1830116624
          23.713078196 -0.94000185488 1.8195344399 26.411340447 -1.89143607 1.55665549
          25.394180477 -2.980522971 0.8938596257 -26.021325099 2.4654470832 1.1470780604
          -26.937168965 1.5866225433 1.4400183682 -24.129544543 1.3782738402 1.8829075683
          -20.102910953 1.3600098173 2.0923064072 -16.55375197 2.3021558214 2.3488477271
          -14.441808365 2.1529691101 2.6802553175 -12.375649163 1.798593295 2.9750422104
          -10.35441231 1.4293532335 3.2741902649 -8.2743926269 1.1407840738 3.5144462554
          -6.2045476624 0.8254342929 3.722377783 -4.1800631819 0.4913940921 3.9266735935
          -2.0841092165 0.24062329445 4.0310402846 -1.2288025075e-06 -7.8130065452e-06 4.0526175017
          2.0841122963 -0.24060371218 4.0310468306 4.180064172 -0.49138779683 3.9266806624
          6.2045502872 -0.82541760325 3.7223804493 8.2743893961 -1.1408046159 3.5144491368
          10.354407538 -1.4293835691 3.2741915463 12.375645607 -1.7986159058 2.9750461295
          14.441805482 -2.1529874354 2.6802553175 16.553750482 -2.3021648766 2.3488407568
          20.102911556 -1.3600067735 2.0923064072 24.129546794 -1.3782619018 1.8829075683
          26.937173505 -1.5865897949 1.4400183682 26.021331358 -2.4653977765 1.1470780604
          -26.596589374 2.7196200147 0.60396215505 -27.518813838 1.7767203557 1.2697263376
          -24.659454747 1.4663204678 1.5721070033 -20.535259963 1.4049019514 2.1205398845
          -16.903995041 2.3219098137 2.2896268012 -14.73319867 2.1787775179 2.6241112893
          -12.623021467 1.8686167948 2.9381946056 -10.53341159 1.5397903197 3.2598532298
          -8.4028290549 1.2746770649 3.5426363451 -6.3252917549 0.94234198618 3.7161195395
          -4.2485138528 0.57343061852 3.9294299699 -2.1068974155 0.2819833572 4.0464502549
          3.7653116165e-06 2.3940741501e-05 4.0755200971 2.1069110539 -0.28189664132 4.0464416687
          4.2485081026 -0.57346717975 3.9294289426 6.3252960171 -0.94231488624 3.7161128082
          8.4028327035 -1.2746538665 3.5426327577 10.533409067 -1.53980636 3.2598588834
          12.623017164 -1.8686441551 2.9381999636 14.733195239 -2.1787993289 2.624117221
          16.903990584 -2.321936936 2.2896193433 20.535261832 -1.4048925187 2.1205456928
          24.659458132 -1.4663025166 1.5721121978 27.518816795 -1.7766990228 1.2697324399
          26.596592897 -2.719592259 0.60396694349 -27.286574548 2.2246719157 0.67731881614
          -28.229918226 1.4513532608 1.0413193466 -25.268517629 1.2849380897 1.5819776883
          -21.024711481 1.2871543539 2.0366920727 -17.246736742 2.3143812825 2.2536416242
          -15.001111804 2.1867737768 2.6027344653 -12.827854958 1.9314710142 2.9422212944
          -10.690426784 1.6187965686 3.2519514764 -8.54276396 1.3534243432 3.5175819718
          -6.4427203846 1.0302669746 3.6942869432 -4.3132826069 0.65874623327 3.9149663563
          -2.1657366035 0.293837378 4.0231948095 -1.5784574986e-06 -1.0036194491e-05 4.0470579238
          2.1657420727 -0.2938026031 4.0231812549 4.3132820362 -0.65874986218 3.9149527143
          6.4427205031 -1.0302662215 3.6942746282 8.5427627722 -1.3534318959 3.5175714948
          10.690424402 -1.6188117133 3.2519475851 12.827849379 -1.9315064887 2.9422146157
          15.001105167 -2.1868159766 2.6027291372 17.24673546 -2.3143890821 2.2536365183
          21.024713899 -1.2871421512 2.0366904686 25.268521246 -1.2849189025 1.5819780266
          28.229920752 -1.4513350382 1.0413223876 27.286575394 -2.2246652465 0.67732486445
          -27.860309541 2.5114041114 0.68573465853 -28.791981208 1.6445658989 1.2879358941
          -25.751062677 1.3599517489 1.5741610717 -21.385064105 1.32248095 2.0980730387
          -17.579337736 2.3336917817 2.2688926595 -15.267889498 2.2562038897 2.6310693383
          -13.085292211 2.002471875 2.9615438571 -10.888288951 1.6967947155 3.266733369
          -8.7307206762 1.4141828354 3.5270074639 -6.5360703827 1.1044967325 3.6886126027
          -4.3478327954 0.72492054968 3.8778902226 -2.1827543825 0.33993966771 3.9915556758
          -1.8467919634e-06 -1.1742318206e-05 4.0161670532 2.1827432037 -0.3400107449 3.9915536981
          4.3478368882 -0.72489452685 3.8778567315 6.536069252 -1.1045039212 3.6885877453
          8.730720512 -1.4141838795 3.5269779736 10.888286649 -1.6968093525 3.2667140353
          13.085291523 -2.0024762538 2.9615325897 15.267884214 -2.2562374813 2.6310601173
          17.579337489 -2.3336932858 2.2688820176 21.385066537 -1.3224686778 2.098069754
          25.751066061 -1.3599338026 1.5741588945 28.79198379 -1.6445472726 1.2879345572
          27.860309681 -2.5114030075 0.68573378271 -28.555899846 2.0237075025 0.58651544126
          -29.434513456 1.3319328207 1.4985564912 -26.274478004 1.203870355 1.5618617696
          -21.807136812 1.2590459745 2.0558596778 -17.882324966 2.3405069644 2.3011024017
          -15.560385429 2.2877454252 2.6466214782 -13.337742574 2.0582760584 2.9824208242
          -11.096542751 1.7526004153 3.2722230518 -8.8653455903 1.464873135 3.5152320829
          -6.6399263991 1.1186044998 3.6947090444 -4.3847425306 0.74288695407 3.8657259102
          -2.1880734141 0.34351343085 3.9485936127 5.1674546145e-07 3.2856037231e-06 3.9582793775
          2.1880824016 -0.34345628649 3.9485796234 4.3847316191 -0.74295633166 3.8657049401
          6.6399250322 -1.1186131904 3.6946963164 8.865351412 -1.4648361191 3.515191643
          11.096543253 -1.7525972202 3.2721975116 13.337741609 -2.0582821985 2.9823970742
          15.560385078 -2.2877476585 2.6465992648 17.882328854 -2.3404833 2.3010880306
          21.807137881 -1.2590405821 2.0558460983 26.27448307 -1.2038434855 1.5618510948
          29.434516245 -1.3319126989 1.498548408 28.555900774 -2.023700194 0.5865085087
          -29.08272001 2.3018860987 1.1389146813 -29.974639265 1.5545974396 1.1291017088
          -26.726768572 1.3453019081 1.8531086235 -22.152562573 1.3136422074 2.1189810395
          -18.166224299 2.3822155902 2.3409715798 -15.830104951 2.3263382074 2.6879611137
          -13.571897773 2.1072037636 2.9938514944 -11.296874219 1.7935459233 3.2941460636
          -9.0342701219 1.4831513977 3.5359517564 -6.7756845313 1.1089135214 3.6933160921
          -4.4758400492 0.74577956115 3.8387800707 -2.2500113008 0.35588462583 3.8996877276
          -1.4261396319e-06 -9.0677032468e-06 3.9168766333 2.2500121298 -0.35587935483 3.8996825308
          4.4758344335 -0.74581526731 3.8387596456 6.7756808916 -1.1089366632 3.6932912154
          9.0342703588 -1.4831498916 3.5359177585 11.296870597 -1.7935689511 3.2941170433
          13.571896832 -2.1072097502 2.9938272108 15.830106592 -2.3263277727 2.6879397388
          18.166227368 -2.3821969073 2.3409682632 22.152565595 -1.313626961 2.1189700838
          26.72677444 -1.3452707825 1.8530991802 29.974646331 -1.5545464686 1.1290922334
          29.082727115 -2.3018301228 1.1389068645 -29.572552212 1.835895572 0.94464800586
          -30.326003804 2.3696692759 1.2749675073 -27.205848511 1.2183854847 1.8033983792
          -22.546100159 1.2844907614 2.17732139 -18.489568293 2.3980352842 2.3546075592
          -16.137003984 2.3687183885 2.7077054972 -13.828655413 2.1319393859 3.0366368714
          -11.511529098 1.7937527153 3.3165774285 -9.2212951169 1.4734375724 3.5403611885
          -6.9274557508 1.0822322436 3.6955133342 -4.5981910128 0.68042204161 3.8425475809
          -2.3049505851 0.34491489639 3.8974617385 -1.8177611219e-06 -1.1557727096e-05 3.9139775483
          2.3049383291 -0.34499282295 3.8974509483 4.5981848426 -0.68046127302 3.8425441644
          6.9274545835 -1.0822396654 3.6955087772 9.2212931572 -1.4734500327 3.5403486403
          11.511525666 -1.793774535 3.3165707545 13.828655724 -2.1319374067 3.0366333016
          16.137008696 -2.3686884257 2.7077057083 18.48957635 -2.3979862481 2.3546114238
          22.546102632 -1.2844782849 2.1773281415 27.205854146 -1.218355595 1.8034022898
          30.326011301 -2.3696151945 1.2749678394 29.572561993 -1.8358185096 0.94464498592
          -30.010763529 2.0849098616 0.66837245785 -30.974373185 1.5117851908 1.3476195219
          -27.673479183 1.3634844192 1.7002634728 -22.977106214 1.3533444196 2.1000795572
          -18.851498659 2.4510712081 2.3720162378 -16.430992952 2.4040904223 2.7174191703
          -14.086012242 2.1210944819 3.0500224315 -11.715158118 1.7971489848 3.3287227842
          -9.3820035986 1.4595511703 3.5522755847 -7.0161749106 1.0552693763 3.7112542685
          -4.6436627954 0.66151439926 3.8518518021 -2.3573098368 0.32075878199 3.938063933
          -1.997051818e-06 -1.2697696017e-05 3.960634944 2.3573031618 -0.32080122322 3.9380580067
          4.6436573964 -0.66154872726 3.8518690546 7.0161718415 -1.05528889 3.7112546891
          9.3820061572 -1.459534902 3.5522819131 11.715156307 -1.7971605019 3.3287297531
          14.086011335 -2.1211002469 3.0500318317 16.430999268 -2.4040502607 2.7174276661
          18.851502474 -2.451047989 2.3720260932 22.977111469 -1.3533179033 2.1000875176
          27.673484534 -1.3634560372 1.7002705408 30.974378516 -1.5117467359 1.347627117
          30.010770575 -2.0848543502 0.66838026622 -30.439187379 3.120301146 0.98056861711
          -31.453102846 2.2558226292 1.3516814378 -28.249817877 1.2016032194 1.8651446265
          -23.423856191 1.3215895611 2.0920166372 -19.239110984 2.5031392105 2.3861089033
          -16.754996035 2.4473765823 2.7314132638 -14.355139005 2.1423260671 3.0726888723
          -11.933028904 1.793170025 3.3547287842 -9.5495564574 1.4339862913 3.5745544576
          -7.1438054357 1.0482042189 3.7504259934 -4.7239701145 0.67767527477 3.8652989523
          -2.357243322 0.34980129238 3.9818432734 -2.6863290843e-06 -1.7080290924e-05 4.0064019484
          2.3572405283 -0.34981905565 3.9818454155 4.7239630161 -0.67772040826 3.8653250312
          7.1438012385 -1.0482309059 3.7504324946 9.5495640317 -1.4339381325 3.5745825814
          11.933029484 -1.7931663411 3.3547434782 14.355143439 -2.1422978701 3.0727074289
          16.754999612 -2.4473538361 2.7314371698 19.23911435 -2.5031187251 2.3861385551
          23.423857343 -1.3215837475 2.0920386488 28.249820361 -1.201590045 1.8651617273
          31.453106954 -2.2557929913 1.351694231 30.439190961 -3.1202729258 0.98057945386
          -31.076551251 3.2263243733 1.2314986599 -32.069905264 2.3675200707 1.2981580475
          -28.811213816 1.2664231271 1.685008537 -23.895676295 1.3700873784 2.1070687928
          -19.593615902 2.54357943 2.3764603385 -17.028369457 2.4474409067 2.7268383674
          -14.594494935 2.1297011536 3.0679226988 -12.132616285 1.8026907734 3.3458017586
          -9.692565294 1.4403766553 3.589836879 -7.252850656 1.0680866298 3.774986766
          -4.7987794472 0.70424369854 3.9107674397 -2.415909045 0.34878374048 4.0119785587
          -7.4725276902e-07 -4.7511854366e-06 4.0623137332 2.4159174003 -0.34873061573 4.0119822279
          4.7987663425 -0.70432702131 3.9107977941 7.2528472487 -1.0681082939 3.7750142951
          9.6925764948 -1.4403054376 3.5898729906 12.132618701 -1.8026754122 3.3458296641
          14.594501343 -2.1296604055 3.0679515294 17.028370986 -2.4474311867 2.7268717137
          19.593620509 -2.5435513936 2.3765019627 23.895676581 -1.3700859367 2.1070986884
          28.811213298 -1.2664258756 1.6850298521 32.069903154 -2.3675352934 1.2981710169
          31.076547809 -3.2263514897 1.2315043326 -31.786660155 2.453374734 0.63088230519
          -32.825154284 1.8823206143 1.1296274672 -29.434172265 1.0271621868 1.7754671208
          -24.341460276 1.5489827284 2.0914929015 -19.983224409 2.5454356627 2.3834851166
          -17.368191881 2.4470165339 2.7403051482 -14.830215049 2.134554267 3.0836509541
          -12.305993967 1.8200375617 3.3717484446 -9.8209123894 1.4745600122 3.6207975518
          -7.3708031765 1.1032655205 3.8100771211 -4.8896832601 0.71421764342 3.933025248
          -2.4591147921 0.34784628275 4.0283644215 1.7027978334e-06 1.0826807436e-05 4.0587717581
          2.4591159662 -0.34783881753 4.0283786175 4.8896884397 -0.7141847104 3.9330435894
          7.3708088307 -1.1032295701 3.8100943346 9.8209226627 -1.4744946919 3.6208290496
          12.30599538 -1.8200285748 3.3717631629 14.830222444 -2.1345072443 3.0836701037
          17.368199141 -2.446970373 2.7403343205 19.983232093 -2.5453888979 2.3835217539
          24.341455173 -1.5490084737 2.0915172781 29.434167179 -1.0271891661 1.775483043
          32.825148577 -1.8823617848 1.129633791 31.786653897 -2.4534240407 0.63088405683
          -32.406213474 2.3100899698 0.60662484506 -33.397676826 1.8286410416 1.437347701
          -29.932665799 1.0360474747 1.8043440899 -24.753354196 1.5830214381 2.180273555
          -20.279942866 2.5950144455 2.3783175807 -17.596454045 2.476152899 2.7528147047
          -15.020281873 2.1434752404 3.1016779843 -12.457400965 1.8691026596 3.3695731881
          -9.9510044392 1.5187713516 3.5992218246 -7.4823884098 1.1644535236 3.7923599442
          -4.9944523832 0.74842038056 3.9139177189 -2.5176700169 0.3591037297 4.025050068
          -2.5421141094e-06 -1.6163332249e-05 4.0659708488 2.5176667102 -0.35912475439 4.0250572548
          4.9944621581 -0.74835822931 3.913934778 7.4823828703 -1.1644887451 3.7923708844
          9.9510043716 -1.5187717813 3.5992354229 12.457401185 -1.8691012561 3.3695806023
          15.020285716 -2.1434508006 3.1016827264 17.596461087 -2.4761081295 2.7528143355
          20.279945324 -2.5949994861 2.3783274457 24.7533513 -1.5830360491 2.1802753484
          29.93266082 -1.0360738805 1.8043453393 33.397671473 -1.8286796635 1.4373502743
          32.406208176 -2.3101317032 0.60662446102 -32.843875028 2.7779548891 0.51533487
          -33.83812463 2.2559696548 1.1490148487 -30.28500629 1.3358746382 1.811172034
          -25.128478407 1.502567306 2.1136381793 -20.554265748 2.6847213419 2.3548637211
          -17.804324557 2.5332402309 2.7413426288 -15.20342909 2.2039704793 3.0795372563
          -12.630216999 1.9356804008 3.3541382603 -10.088703997 1.5982862328 3.5762241089
          -7.5572392335 1.2529576439 3.7467260332 -5.0652986153 0.82832211547 3.9001642065
          -2.5551835608 0.37310049288 4.014976021 3.6903560683e-06 2.3464175389e-05 4.0563240701
          2.5551875396 -0.37307519434 4.0149844392 5.0652849762 -0.8284088361 3.9001633469
          7.5572321481 -1.2530026947 3.7467316949 10.088703627 -1.5982885848 3.5762351571
          12.63021939 -1.9356652027 3.3541380013 15.203432277 -2.2039502148 3.0795346121
          17.804324267 -2.5332420687 2.7413370472 20.554269515 -2.6846984143 2.354857112
          25.128475342 -1.5025827698 2.1136331012 30.285000487 -1.3359054201 1.8111686074
          33.838117797 -2.2560189542 1.1490109384 32.843867505 -2.7780141516 0.51533437822
          -33.357741422 2.3469176916 1.103703438 -34.375927748 1.9860186567 1.3880836669
          -30.760948298 1.1995805243 1.827691773 -25.452073555 1.7250687228 2.0887012893
          -20.866576955 2.7446321739 2.3866445018 -18.100082564 2.611141123 2.7479016928
          -15.48982143 2.2504105516 3.1105783875 -12.879313176 1.9607550353 3.3532210318
          -10.293526977 1.6557490625 3.5561321905 -7.7145583378 1.3109584462 3.7295365372
          -5.1572086247 0.89422675854 3.8658964615 -2.574083392 0.45421977352 3.9772201341
          -1.1629092549e-06 -7.3940231555e-06 4.0346795011 2.5740749061 -0.45427372874 3.9772181211
          5.1572194997 -0.89415761266 3.8658997689 7.7145537287 -1.3109877518 3.7295374541
          10.293522845 -1.6557753394 3.5561339733 12.879313277 -1.9607543892 3.3532147776
          15.489823008 -2.2504005193 3.1105665741 18.100087267 -2.6111112202 2.747884402
          20.866577891 -2.7446264751 2.3866285927 25.452070304 -1.7250851239 2.088682821
          30.760942649 -1.199610486 1.8276792593 34.375922617 -1.9860556729 1.3880772878
          33.357737469 -2.3469488298 1.1037016779 -33.814352509 2.5791954879 0.88028633098
          -34.823697698 2.2242726545 0.99542745881 -31.129134941 1.3934862494 1.79455048
          -25.803314455 1.643875921 2.1524539181 -21.158671303 2.867512668 2.3825340861
          -18.36949608 2.742583679 2.7345495439 -15.792112111 2.303572776 3.0975529467
          -13.176498493 1.96349297 3.3517510656 -10.535743138 1.6254333984 3.5662220749
          -7.8765296619 1.3281025311 3.7217402236 -5.2534022105 0.88760344448 3.8452339769
          -2.6034937408 0.47747206098 3.9374377984 1.3010954369e-06 8.2726993212e-06 3.9694555595
          2.6034981165 -0.47744423899 3.9374334898 5.2533957926 -0.88764425117 3.845219793
          7.8765299352 -1.3281007937 3.7217415953 10.535744765 -1.6254230501 3.5662266149
          13.176498591 -1.963492346 3.3517504012 15.792116331 -2.3035459479 3.0975502758
          18.369500106 -2.7425580808 2.7345464776 21.158675464 -2.8674873481 2.3825227349
          25.803314225 -1.6438770797 2.1524499032 31.129130234 -1.3935112155 1.7945465349
          34.823694069 -2.2242988389 0.99542392984 33.81434865 -2.5792258909 0.88028115849
          -34.183437707 3.343396151 0.62444731495 -35.153011611 2.8364640511 1.163638858
          -31.453634218 1.7559122724 1.7767518191 -26.113506254 1.8427289243 2.0964641272
          -21.459526405 2.9818265374 2.3596483332 -18.676237109 2.8266673469 2.7349859684
          -16.048055103 2.3913857205 3.080637012 -13.41518406 2.0113404656 3.3517141463
          -10.725077973 1.6587605229 3.5621020467 -8.0104922882 1.3107515899 3.7217246283
          -5.3372232017 0.92789562859 3.8320488372 -2.66357581 0.48266885067 3.9060947796
          -5.2750077765e-07 -3.3539510492e-06 3.9195257882 2.6635819404 -0.48262987236 3.9061038601
          5.3372251883 -0.92788299696 3.8320458572 8.0104854249 -1.3107952283 3.7217319947
          10.725070829 -1.6588059418 3.562108551 13.415182595 -2.0113497793 3.3517202554
          16.048053956 -2.3913930112 3.0806416646 18.676240522 -2.8266456458 2.7349889719
          21.459524771 -2.9818364808 2.3596338299 26.113505687 -1.8427317859 2.0964589798
          31.453633575 -1.7559156834 1.7767475703 35.153010285 -2.8364736149 1.1636354849
          34.183437903 -3.3433946076 0.62444428658 -34.719691541 3.1781918293 1.0754185643
          -35.692893059 2.7872468882 1.2868787097 -31.937967835 1.7783538946 1.7602810324
          -26.499812966 1.8990427646 2.1773353479 -21.821017948 3.0643576306 2.3816509022
          -18.988194473 2.8813604103 2.7510151213 -16.313011291 2.4476491292 3.0831909343
          -13.609640937 2.0324444097 3.3509630987 -10.857275166 1.6551513804 3.5566546869
          -8.1136818043 1.2939548742 3.7123590586 -5.3899166863 0.91965415942 3.8193126685
          -2.6894354102 0.46258512135 3.8795708945 -6.372108998e-07 -4.0515135894e-06 3.8853279096
          2.6894336271 -0.46259645849 3.8795780325 5.38993003 -0.91956931719 3.8193012638
          8.1136773087 -1.2939834582 3.712363023 10.857266684 -1.6552053157 3.5566636966
          13.609642635 -2.0324336147 3.3509642173 16.313008964 -2.4476639273 3.0831862973
          18.988194714 -2.8813588746 2.7510017668 21.821018933 -3.0643516335 2.3816347632
          26.499812923 -1.899042982 2.1773131234 31.937967899 -1.7783535509 1.7602669835
          35.692893291 -2.7872452166 1.2868738787 34.719691124 -3.1781951159 1.0754198326
          -35.190482914 3.6640226334 0.68016102541 -36.37493919 2.0334579851 1.3404519681
          -32.525304939 1.4430617221 1.6600170426 -26.991998911 1.8271082518 2.2016786695
          -22.196813593 3.1492837366 2.3733008213 -19.362847001 2.9343079523 2.7345234477
          -16.622333512 2.4550852595 3.0803059139 -13.854640536 2.0238768027 3.3591861662
          -11.039711835 1.6218124517 3.5861010745 -8.2205109201 1.2774188689 3.7446198567
          -5.4613983182 0.84833706688 3.8517705818 -2.7171941671 0.42194316529 3.9049196401
          -2.3212937218e-08 -1.4756828404e-07 3.936103665 2.7171921126 -0.42195622857 3.904912986
          5.4613998895 -0.84832707653 3.8517578957 8.2205086094 -1.2774335611 3.7446144929
          11.03970434 -1.6218601079 3.5861075083 13.854635702 -2.0239075353 3.3591836722
          16.622337925 -2.4550572031 3.0803034573 19.362847179 -2.9343068212 2.7345196869
          22.196812657 -3.1492894354 2.3732912615 26.991999384 -1.8271058656 2.2016735915
          32.525305656 -1.4430579194 1.660013616 36.374940317 -2.0334498563 1.3404480579
          35.190484178 -3.6640126775 0.68016053363 -35.78728719 3.0238968686 0.94001332441
          -36.850916123 2.7778909171 1.3595312429 -32.939873607 1.883736374 1.86482442
          -27.386589682 2.0464309919 2.0981274265 -22.533183687 3.2156704028 2.3496128275
          -19.638122185 2.9934631491 2.7037888948 -16.871861879 2.5433258043 3.0680617341
          -14.066814582 2.0873587125 3.3633074005 -11.196473754 1.6710630349 3.581587193
          -8.3259332353 1.2829230593 3.737721104 -5.5386351772 0.858489831 3.8670408757
          -2.7535793751 0.41026948634 3.9157555683 5.2916694057e-07 3.3645886271e-06 3.93920671
          2.7535800826 -0.41026498829 3.9157488385 5.5386414694 -0.85844982403 3.8670370264
          8.325930854 -1.2829381999 3.7377163482 11.196464283 -1.671123255 3.5815855849
          14.066812682 -2.0873707957 3.3633103821 16.871861021 -2.5433312604 3.0680601279
          19.638118323 -2.9934877005 2.7037852982 22.533181794 -3.215681926 2.3496087936
          27.386590278 -2.0464279825 2.0981240725 32.939874419 -1.8837320658 1.8648214207
          36.850917161 -2.7778834287 1.3595304431 35.787288118 -3.0238895601 0.94000991201
          -36.326529294 3.0206283251 1.1337976177 -37.45664431 2.8079013484 1.3133991671
          -33.48606969 1.9101884327 1.7359073499 -27.8260742 2.0570097964 2.1435728514
          -22.890373058 3.2279202132 2.3643803396 -19.947749376 3.0165635577 2.7263489127
          -17.107928713 2.5581259143 3.0869495838 -14.249457946 2.1325402795 3.3813433563
          -11.395374644 1.6989711881 3.6205692141 -8.4863366114 1.291913645 3.7637129768
          -5.6550682067 0.8610400429 3.8534527614 -2.8203676517 0.41700826117 3.8908216591
          -3.3047557121e-06 -2.1012391585e-05 3.9074472082 2.8203560179 -0.41708223187 3.8908156872
          5.6550830064 -0.86094594262 3.8534536213 8.4863352894 -1.2919220509 3.763708626
          11.395371785 -1.6989893674 3.6205686605 14.249454665 -2.1325611378 3.381340948
          17.107932253 -2.5581034053 3.0869530339 19.947747629 -3.0165746663 2.7263523495
          22.89036876 -3.2279463716 2.3643830368 27.826075903 -2.0570012043 2.1435798923
          33.486073044 -1.9101706434 1.7359110622 37.456647588 -2.8078777034 1.3133989559
          36.326532736 -3.0206012088 1.1337954652 -36.827801925 3.649533872 1.1850155347
          -38.099306488 2.1453073376 1.1548265773 -34.05364264 1.5335846309 1.8529470471
          -28.254353291 1.8858457249 2.149026639 -23.201029462 3.2260512653 2.348952907
          -20.161438896 3.030011443 2.7097306105 -17.338757547 2.5378665356 3.0543108512
          -14.444393204 2.1640120845 3.3633889017 -11.561947498 1.7485288778 3.6048970283
          -8.675700623 1.3290591749 3.7434384279 -5.7814804435 0.88165511901 3.8550391575
          -2.8801691767 0.44994581295 3.8895993874 -3.9110779492e-06 -2.4867523469e-05 3.8953377028
          2.8801642686 -0.44997701934 3.8896011704 5.7814784931 -0.88166751985 3.8550338613
          8.6756999675 -1.3290633427 3.7434302712 11.561948325 -1.7485236208 3.6048921438
          14.444392565 -2.1640161502 3.3633876863 17.338759163 -2.5378562574 3.0543124753
          20.161437765 -3.0300186365 2.7097335955 23.201026105 -3.2260716989 2.3489625129
          28.254353999 -1.8858421497 2.1490285018 34.053644576 -1.533574362 1.8529491187
          38.099309182 -2.1452879037 1.1548286135 36.827805367 -3.6495067557 1.1850176872
          -36.289094525 3.0781518911 1.2983159574 -37.718636854 2.9047023686 1.5928719463
          -33.940075388 1.3133381254 2.0455265241 -28.060591628 2.00496132 2.2397214269
          -23.071804571 3.1788731014 2.4679547402 -20.067512644 2.9984641031 2.8175361666
          -17.243644499 2.5312330775 3.1778290712 -14.39616933 2.1560470227 3.4805901325
          -11.508641077 1.7686629703 3.7233958416 -8.6402022037 1.3270172385 3.8988830525
          -5.7453641396 0.88596512054 3.9966758752 -2.8711077286 0.46377849641 4.025070833
          -4.061676252e-06 -2.5279855771e-05 4.0351716975 2.8711078232 -0.46377790747 4.025073706
          5.7453538026 -0.88602945834 3.9966732242 8.6402071192 -1.3269866441 3.8988751664
          11.508645907 -1.7686329086 3.7233807094 14.396171975 -2.1560305584 3.480589652
          17.243644379 -2.531233824 3.1778370655 20.067514187 -2.998454502 2.8175464145
          23.071806625 -3.1788608562 2.467976304 28.060593356 -2.0049527623 2.2397348557
          33.940073958 -1.3133455536 2.0455366752 37.718635911 -2.904708966 1.5928775699
          36.289094611 -3.0781512436 1.298321453 -32.784000573 3.9068304064 4.250882119
          -34.175220487 3.6182179597 3.1857295488 -30.599735226 1.8391851533 2.7754758657
          -25.138493106 2.2317103782 2.9192517115 -20.419558809 3.58619027 3.0478090077
          -17.898746509 3.3238975356 3.4428193963 -15.290093473 2.8106963522 3.7533359573
          -12.718791684 2.4084246108 4.0555168014 -10.169849923 1.9711450209 4.3024230491
          -7.6490228261 1.4909602021 4.5196994067 -5.0874833235 1.0094304634 4.5659314514
          -2.5642034602 0.52077970423 4.6755798831 5.8390646659e-07 3.7056689996e-06 4.661181476
          2.5642157545 -0.52070168051 4.67556344 5.0874810453 -1.009444922 4.5659192708
          7.6490240996 -1.4909521197 4.519691347 10.169854348 -1.9711169356 4.3024373679
          12.718795335 -2.4084014411 4.0555230057 15.290098914 -2.8106618205 3.7533419338
          17.898746684 -3.3238964303 3.4428316325 20.419558399 -3.5861927649 3.0478306412
          25.138488749 -2.231733041 2.9192693087 30.599732786 -1.8392002072 2.7754889004
          34.175219367 -3.6182342281 3.1857411481 32.783999718 -3.9068450003 4.2508882036
          -31.474260217 6.5809862888 7.6221350603 -33.38136625 4.3689071999 5.6856229315
          -29.263024523 3.4540967691 3.6674812318 -24.393719891 3.5951583363 3.3787040759
          -19.564859281 4.7813728569 3.5035328607 -16.541436765 4.5244534294 3.6440451433
          -14.37024441 3.7755849299 4.1992891217 -12.309543354 3.1384492073 4.4788116611
          -9.6779839722 2.585881873 4.7212264379 -7.1208151647 1.9736302472 4.653994524
          -5.1480637401 1.2716253256 4.9128180146 -2.5911564878 0.62106949857 4.8458224577
          -3.6799509582e-06 -2.8947818988e-05 4.8173934195 2.5911549738 -0.62108140884 4.8458399561
          5.1480620388 -1.2716387079 4.9128101875 7.1208133149 -1.9736447983 4.653995886
          9.677990088 -2.585833764 4.7212206625 12.309548341 -3.1384099791 4.478816301
          14.370247022 -3.7755643893 4.1993072678 16.541437468 -4.5244478996 3.6440748702
          19.564860799 -4.7813614337 3.5035623344 24.3937187 -3.5951673303 3.3787328059
          29.263023161 -3.4541164408 3.6675007141 33.38136533 -4.3689428539 5.6856324424
          31.474257543 -6.5810380336 7.6221383806 -34.897748675 7.553956173 10.164397547
          -36.088736102 6.4933960408 6.0846448225 -31.197197102 4.3155598896 3.6487814239
          -25.980638987 4.5980151152 3.2357923717 -20.543743385 6.0598031836 3.0661749738
          -17.673888702 5.5910867899 3.6247096754 -15.140194111 4.7932926998 3.7512892167
          -12.809919932 3.9706563469 3.9723075322 -10.608103535 3.1927873211 4.2177579996
          -7.3720213203 2.506106262 4.5066420875 -5.2793365419 1.661521106 4.8554894525
          -3.1947660381 0.72578972759 4.7127413563 2.0733547939e-06 2.2061785521e-05 4.6614391182
          3.1947617069 -0.72583581429 4.71273389 5.2793335162 -1.6615533015 4.8554919417
          7.3720147419 -2.5061762599 4.5066402061 10.608109416 -3.1927247382 4.2177563224
          12.809926243 -3.9705891961 3.9723053088 15.140197043 -4.7932615037 3.7512935958
          17.673887503 -5.5910995498 3.6247136441 20.543743527 -6.05980176 3.0661892356
          25.980636447 -4.5980370331 3.2357994601 31.19719329 -4.3156025642 3.6487840808
          36.088733484 -6.493462675 6.0846402297 34.89775073 -7.5540245182 10.164396014
          -38.747806759 6.5440831915 9.3066126715 -39.118618827 5.6225654791 4.3933496933
          -34.504846374 4.1556670946 1.7996714738 -28.636227244 3.7446232971 2.5456282769
          -23.844160164 5.1472714626 2.7065031509 -19.993290883 4.9639447682 3.338672075
          -18.272812157 4.1276374307 3.4212241094 -15.20517431 3.43683918 4.3410176228
          -12.321966871 2.7461489323 4.6012607323 -9.5922720271 2.0192731057 4.2240684144
          -5.2963789532 1.5062779002 4.6906124762 -2.6095462289 0.72978498662 4.4982939929
          -1.9227110734e-06 -1.8475932612e-05 4.442239116 2.6095434885 -0.72981131967 4.4983429515
          5.2963680036 -1.5063831177 4.6905287816 9.5922664291 -2.0193268984 4.2240754014
          12.321973051 -2.7460895434 4.6010960071 15.205178898 -3.4367950934 4.3410121312
          18.272817523 -4.1275858613 3.4212125403 19.993291329 -4.9639404884 3.3386513564
          23.844167645 -5.1472048909 2.7068386949 28.636222847 -3.7446575861 2.5456101891
          34.504838058 -4.155731818 1.7996526551 39.118614154 -5.6226493232 4.3933300625
          38.747811872 -6.5441792494 9.3065948803
        </DataArray>
        <DataArray type="Float64" Name="Strain" NumberOfComponents="3" ComponentName0="epsil_xx" ComponentName1="epsil_yy" ComponentName2="epsil_xy" format="ascii" RangeMin="0.00034776345368" RangeMax="0.0081148131917">
          -0.00015609217111 2.04481262e-05 0.00031009116074 -0.00032835118803 3.6869569245e-05 0.00031775907022
          -0.00014993528674 4.7288795606e-05 0.00043291580508 0.00012463327925 4.6516050735e-05 0.00052116044937
          7.8296613595e-05 3.8749781759e-05 0.00057479603866 6.2430784112e-05 2.8212104331e-05 0.00065031518932
          0.00010331908815 1.8641527364e-05 0.00072922824641 -0.00018408647429 8.6231278997e-06 0.00079552658266
          -4.9907607873e-05 1.0094522551e-08 0.00084999405395 0.00011978614177 -2.3507806812e-10 0.00089185278828
          -5.5121634075e-05 -5.8024585137e-10 0.0009192683942 0.00014772667021 1.9733341627e-09 0.00093997153637
          0 -1.7874975722e-08 0.00094716155154 -0.00014772667021 -9.0438383449e-09 0.00093999458255
          5.5121634075e-05 5.485275123e-09 0.00091929608958 -0.00011978614177 1.3167376745e-08 0.00089183977624
          4.9904089106e-05 -6.091982252e-09 0.00084995848327 0.00018407230098 -8.6172078073e-06 0.00079548897139
          -0.00010331068039 -1.8623154283e-05 0.00072923962838 -6.2441899911e-05 -2.819791072e-05 0.00065032818037
          -7.8304254225e-05 -3.8749704964e-05 0.00057481225605 -0.00012463082839 -4.65288681e-05 0.00052117505002
          0.00014992490587 -4.7317252408e-05 0.00043292400441 0.00032835139833 -3.6912243079e-05 0.00031776283067
          0.00015609182511 -2.04848764e-05 0.00031009408664 -0.00025636272501 6.8330544052e-05 0.00033183511459
          -0.0001546796763 8.6269859334e-05 0.00045169874693 -0.00025057457293 8.3991518865e-05 0.00046704528515
          -3.4959011872e-05 6.9068526738e-05 0.00055733039967 -6.1018721935e-05 4.8727806012e-05 0.00060543567113
          -5.9049305526e-05 3.362029684e-05 0.00068437322866 -1.4368838267e-05 2.699403075e-05 0.00077299835752
          -0.00021128414098 1.8244388185e-05 0.0008407849348 -9.6117194462e-05 7.6261574475e-06 0.00090133746183
          5.5221188081e-05 4.9642870723e-06 0.00095316959696 -7.4160631988e-05 1.5383061531e-06 0.00098545989204
          0.0001008878342 2.35929698e-09 0.0010071395266 -2.3739998856e-10 3.3834401947e-09 0.0010105029024
          -0.00010088817423 1.1412186751e-09 0.0010071418339 7.4160419739e-05 -1.5401298781e-06 0.00098546489475
          -5.5221397037e-05 -4.9596987649e-06 0.00095320849869 9.6117262681e-05 -7.6115355458e-06 0.00090137598462
          0.00021127576137 -1.8220891195e-05 0.00084082555744 1.4356302193e-05 -2.6967701048e-05 0.00077300738547
          5.9038003968e-05 -3.3607420852e-05 0.0006843204776 6.1025914588e-05 -4.8727196044e-05 0.00060538447503
          3.4962922582e-05 -6.9062013653e-05 0.00055727860631 0.00025056498574 -8.4021286774e-05 0.00046705456671
          0.00015466944954 -8.6321032616e-05 0.00045170259163 0.00025636080803 -6.8380608492e-05 0.00033182957408
          -0.00035472932332 0.00016527673434 0.00030046849537 -0.00028338854524 0.00017397565229 0.00044240650953
          -0.00033060192316 0.0001457718405 0.00045566020011 -0.00018826284925 0.00010521101077 0.00055099881722
          -0.00018625797249 6.6626856421e-05 0.00052074772136 -0.00016745325449 5.6044183462e-05 0.00060454119798
          -0.00011869621361 4.9949239391e-05 0.00069930330642 -5.1782621326e-05 3.7760707334e-05 0.00076781692082
          -0.00013062034445 2.146586537e-05 0.00082915871119 -2.7250589276e-05 1.0926918035e-05 0.0008833570661
          -8.711252158e-05 6.2815194526e-06 0.00091621285496 2.9795371125e-05 1.7946421922e-06 0.0009412886602
          -2.2204460493e-16 -2.180048253e-09 0.00094747566508 -2.9795883255e-05 -1.7935292949e-06 0.00094129433756
          8.7111727091e-05 -6.2903737665e-06 0.00091621811444 2.7248939199e-05 -1.0919585403e-05 0.00088336341581
          0.00013061804515 -2.1447784601e-05 0.00082916581441 5.1779646136e-05 -3.7730652098e-05 0.0007678255121
          0.00011869672574 -4.992050918e-05 0.0006993149186 0.00016745267571 -5.6023900766e-05 0.00060455613882
          0.00018626022498 -6.6620665391e-05 0.00052076295002 0.00018826934642 -0.00010520171644 0.00055097313841
          0.00033060231606 -0.00014580847001 0.00045566990131 0.00028338730945 -0.0001740237002 0.00044240900958
          0.00035472721045 -0.00016531549266 0.00030046556372 -0.00042244585989 0.00024749357997 0.00022586485234
          -0.00037950486269 -4.9326729733e-05 0.00035657804359 -0.00032440242788 1.936430929e-05 0.00046431986392
          -0.00030662750631 5.7197859943e-05 0.00048937416033 -0.0002787806997 7.4464050244e-05 0.00054835669602
          -0.00024540801474 6.3544991578e-05 0.00063339274509 -0.0002025858893 5.6042154515e-05 0.00072951528229
          -0.0001481037595 4.551878064e-05 0.00079672686402 -0.00014898881596 2.965557863e-05 0.00085441629563
          -8.8170111274e-05 2.0058334546e-05 0.0009091279875 -8.6102785643e-05 1.2135258644e-05 0.00094198119642
          -1.2802283265e-05 5.6089472575e-06 0.00096651370325 -2.2204460493e-16 -1.0178755505e-08 0.00097328825548
          1.2801874536e-05 -5.6129165111e-06 0.00096651222749 8.6101742837e-05 -1.2134042286e-05 0.00094198320099
          8.816816028e-05 -2.0042780646e-05 0.00090913001069 0.00014898607271 -2.9642232797e-05 0.00085442412756
          0.00014810018403 -4.5496254201e-05 0.00079673308481 0.00020258483174 -5.6022703353e-05 0.00072951973358
          0.00024539605868 -6.3532081569e-05 0.00063339197718 0.00027877384234 -7.446140007e-05 0.00054835389521
          0.00030661819865 -5.7209335421e-05 0.00048937133154 0.00032439483551 -1.939759994e-05 0.00046431865913
          0.00037950200217 4.9280899216e-05 0.00035657780317 0.0004224423512 -0.00024753010873 0.00022586294989
          -0.00047529844875 0.00030547021102 0.0003170313372 -0.00045146722033 -8.3303324355e-06 0.00030412954887
          -0.00041856319106 4.8761516599e-05 0.0004472187868 -0.00037372121151 7.5400502743e-05 0.00049237993481
          -0.00033397887137 8.7101549843e-05 0.00055705427494 -0.00029183695186 8.2115492717e-05 0.00064430653392
          -0.00024589418102 7.8710324933e-05 0.00073500490588 -0.00021010122201 6.8047403519e-05 0.00079958440651
          -0.00017028528883 4.947744203e-05 0.00085714419633 -0.00012290734585 3.2830410701e-05 0.00090950259119
          -8.5886335473e-05 1.7641176653e-05 0.00094406223322 -3.7699977884e-05 8.508987752e-06 0.00096574903706
          -3.3306690739e-16 4.2388290655e-09 0.00097322436427 3.7699977883e-05 -8.5053351534e-06 0.00096575211906
          8.5886335472e-05 -1.7647590971e-05 0.00094406270545 0.00012290734585 -3.2833854393e-05 0.00090950036421
          0.00017028528883 -4.9474771906e-05 0.00085714059098 0.00021010081839 -6.8039916893e-05 0.00079957883831
          0.00024589324168 -7.8698790683e-05 0.00073499841831 0.00029183352552 -8.210932367e-05 0.00064429574671
          0.00033397797072 -8.7102878748e-05 0.0005570408257 0.00037372028942 -7.5411975989e-05 0.00049236722571
          0.0004185669393 -4.878881495e-05 0.00044721097212 0.00045146941334 8.2894574591e-06 0.00030412601096
          0.00047529780502 -0.00030550324682 0.0003170293119 -0.0005751375181 -3.9210222487e-05 0.00019519196224
          -0.00054146864674 1.8623696751e-05 0.00036282996574 -0.00050528273447 7.5280680766e-05 0.0004843848895
          -0.00045612697001 0.00010416884067 0.0005079467242 -0.0004118173482 0.00011365265333 0.00055719416519
          -0.00035972877673 0.00011140632603 0.00064476133547 -0.00031361053662 0.00011698910137 0.00073396635418
          -0.00026827175759 0.00010430305057 0.00080186859199 -0.0002134964881 8.151175301e-05 0.00086130459745
          -0.00015715405926 5.5104791896e-05 0.00091259512352 -0.00010463793062 2.9633670094e-05 0.00094608662702
          -4.6855290789e-05 1.7552215285e-05 0.00096425353416 -2.2204460493e-16 1.3508146601e-08 0.00096941504596
          4.6855290788e-05 -1.754282251e-05 0.00096425443036 0.00010463793062 -2.9635692366e-05 0.00094608629236
          0.00015715405926 -5.5105420403e-05 0.00091259482929 0.0002134964881 -8.1496052107e-05 0.0008613024172
          0.00026827215037 -0.00010429215818 0.00080186007336 0.00031361145074 -0.00011697641857 0.00073395431473
          0.00035972805617 -0.00011140221254 0.00064474399684 0.00041181822467 -0.00011365316824 0.0005571750566
          0.0004561320156 -0.00010415536193 0.00050792833042 0.00050528352074 -7.5299691739e-05 0.00048437155861
          0.00054146750678 -1.8659477681e-05 0.00036282097264 0.00057513690149 3.9176848065e-05 0.00019518682927
          -0.00068231167028 -2.7902683093e-05 0.00025049153296 -0.00063760553995 4.073638699e-05 0.00041195017646
          -0.00059814875798 0.00011382431149 0.0004332256572 -0.0005459298733 0.00013946851935 0.00048843740921
          -0.00049482436487 0.00014367993513 0.00055204332112 -0.00043039672342 0.00013913174022 0.00063891971706
          -0.00037062810257 0.0001436828927 0.00072491731865 -0.00031590652287 0.00012983384508 0.00079124111767
          -0.00025189379486 9.9479562437e-05 0.00085140914372 -0.00018558729582 6.011711987e-05 0.00090688534927
          -0.00012116608445 2.3011963047e-05 0.00093855686994 -5.4632462863e-05 8.5059455315e-06 0.00095300498968
          -2.2204460493e-16 -7.3008254997e-10 0.00095716794135 5.4632462862e-05 -8.5098788271e-06 0.00095300382005
          0.00012116608445 -2.3004556105e-05 0.00093855544589 0.00018558729582 -6.0110193158e-05 0.00090688124194
          0.00025189418764 -9.9471706111e-05 0.0008514023537 0.00031590560874 -0.00012983063381 0.00079123209673
          0.00037062698922 -0.00014368102508 0.00072490507106 0.00043039929959 -0.00013913141121 0.00063890216375
          0.0004948259619 -0.00014367968951 0.00055202634053 0.00054593565612 -0.00013944670877 0.00048841775143
          0.00059814680409 -0.00011383409194 0.00043321253751 0.00063760920826 -4.0753256696e-05 0.00041193999862
          0.00068231433854 2.788455923e-05 0.0002504853764 -0.00077728278832 0.00034213576635 0.0002769383496
          -0.00072879024397 4.5630686047e-05 0.00029322862793 -0.00068148748325 0.00013759336334 0.00045090268255
          -0.00062559049088 0.00017035797631 0.00049783432888 -0.00057048579429 0.0001750427301 0.00055409339793
          -0.00050085803721 0.00017064723664 0.00064327590529 -0.0004339236953 0.00016330728636 0.00072515708618
          -0.00036537909436 0.00014779211347 0.00079284497831 -0.00029722878711 0.00011484627269 0.00085085011793
          -0.00022138038789 6.9843925067e-05 0.0009054550509 -0.00014854702809 2.2848349202e-05 0.00093944800186
          -6.4533607791e-05 6.7158896853e-06 0.00095357050193 -2.2204460493e-16 -1.1519621146e-08 0.00096050443883
          6.453360779e-05 -6.7199041729e-06 0.00095356893249 0.00014854702809 -2.2855468931e-05 0.00093944508359
          0.00022138038789 -6.9839728958e-05 0.00090545271253 0.0002972291799 -0.00011486527379 0.00085084355946
          0.00036538000849 -0.00014780876024 0.00079283554701 0.00043392258195 -0.00016331808994 0.00072514445404
          0.00050085624661 -0.00017065147689 0.00064325998584 0.00057048158344 -0.00017504827615 0.0005540754959
          0.00062558885687 -0.00017038923938 0.00049781503734 0.00068148309961 -0.00013758358289 0.00045088933087
          0.00072878885558 -4.5613816342e-05 0.00029321750049 0.00077728422335 -0.00034211764249 0.00027693160387
          -0.00088746092882 0.00030771518483 0.00029840192541 -0.00083665978877 3.7079032644e-05 0.00032399813522
          -0.00077838783456 0.00015222395531 0.0004784420217 -0.00071541999557 0.00020247774581 0.00051176416227
          -0.00065004353872 0.00020615322629 0.00056058181853 -0.00056721671868 0.00019538504857 0.00064574195216
          -0.00048730670711 0.00018114334488 0.00072412578496 -0.00041094210429 0.00015670808512 0.00079298075602
          -0.00033539021728 0.00012081688628 0.00084445874044 -0.00024700345082 7.4958056809e-05 0.00089011338648
          -0.00017242219424 2.6614533675e-05 0.00092579321107 -7.7016278695e-05 7.4033304955e-06 0.00094387790252
          -2.2204460493e-16 -6.3721244947e-09 0.00094747158922 7.7016278695e-05 -7.4105232056e-06 0.00094387916273
          0.00017242219423 -2.6623789906e-05 0.00092579472461 0.00024700345082 -7.4967525788e-05 0.00089011527138
          0.00033539021728 -0.00012083292101 0.00084445946269 0.00041094210429 -0.00015672291405 0.00079297834467
          0.00048730670711 -0.00018115850769 0.00072411781242 0.00056721671868 -0.00019539441316 0.00064572832022
          0.00065004353872 -0.00020615844971 0.00056056457448 0.00071541999557 -0.00020250051551 0.00051174660504
          0.00077838783456 -0.00015219784351 0.0004784292343 0.00083665978877 -3.7043251715e-05 0.00032398947828
          0.00088746092882 -0.00030768181041 0.00029839708703 -0.00099272162921 0.00025048494289 0.00029206251145
          -0.00094057837326 0.00030474429789 0.00033843829337 -0.00086946147564 0.00015580398318 0.00041296556061
          -0.00080121574159 0.00022500574007 0.00048983588204 -0.00072442097096 0.00023459946946 0.00055959631687
          -0.00063677208319 0.00021883141581 0.00063942920065 -0.00054667010464 0.00020014749219 0.00071938499251
          -0.00045713660128 0.00016509829202 0.00078561536962 -0.00037070928923 0.00012427004522 0.00083895289578
          -0.0002755417628 7.8004248397e-05 0.00088188518055 -0.00018453724309 3.3058839524e-05 0.00091413386158
          -8.809054512e-05 1.1860787433e-05 0.00093707292826 -2.2204460493e-16 -8.8102525275e-11 0.00094170769065
          8.8090545119e-05 -1.1858093715e-05 0.00093707331918 0.00018453724309 -3.306432298e-05 0.00091413523521
          0.0002755417628 -7.8013446877e-05 0.00088188865843 0.00037070928922 -0.00012428524249 0.00083895789841
          0.00045713660128 -0.00016512111978 0.0007856188463 0.00054667010464 -0.00020016708729 0.00071938417175
          0.00063677208319 -0.00021884086728 0.00063942417757 0.00072442097096 -0.00023459920036 0.00055958747033
          0.00080121574159 -0.00022499282696 0.00048982655538 0.00086946147563 -0.00015577975761 0.00041295816164
          0.00094057837326 -0.00030470489466 0.00033843438291 0.00099272162921 -0.00025045190709 0.00029206085367
          -0.0011147731695 0.00015729036607 0.00026919471101 -0.0010599826906 0.00025884797447 0.00033437766369
          -0.00099038049351 0.00030794512283 0.00042187983018 -0.00091285455087 0.00023699359925 0.00049808900113
          -0.00082635557083 0.00025430225833 0.00055854342602 -0.00072438312759 0.00023833234514 0.00063777970185
          -0.00061981675801 0.00021241797848 0.00071437575905 -0.00051488905542 0.0001727187988 0.00078244946333
          -0.00041090199905 0.00012328355801 0.00083581485182 -0.00030608957717 8.1630058062e-05 0.00087707361033
          -0.00019928551517 4.4893639482e-05 0.00090889120609 -9.9879851662e-05 2.3012279609e-05 0.00093524329578
          -4.4408920985e-16 -1.0311432486e-08 0.00093822849158 9.9879851661e-05 -2.3011633735e-05 0.00093524105468
          0.00019928551517 -4.488645831e-05 0.00090889048147 0.00030608957717 -8.1619429258e-05 0.00087707472467
          0.00041090199905 -0.00012329576837 0.00083581900573 0.00051488905542 -0.00017274266822 0.0007824565514
          0.00061981675801 -0.00021243987616 0.00071438442523 0.00072438312759 -0.00023834738594 0.00063779011366
          0.00082635557083 -0.00025430630452 0.00055855163398 0.00091285455087 -0.0002369849811 0.00049809555926
          0.00099038049351 -0.00030792215398 0.00042188476276 0.0010599826906 -0.00025881176879 0.00033438076733
          0.0011147731695 -0.00015725589898 0.00026919557252 -0.0012258151169 0.00040391215426 0.00021698662053
          -0.0011730054912 0.0001843171895 0.00030981641815 -0.0010987901486 0.0002771517873 0.00041153871531
          -0.0010123389388 0.00030137783692 0.00049577121029 -0.00091437663166 0.00027257210939 0.00055660204036
          -0.00079947159987 0.00025346477345 0.00064028160318 -0.00068307847276 0.00021892427651 0.00071315565333
          -0.00056808055304 0.00017986189452 0.00078368884485 -0.00045117507524 0.00013323065376 0.00084266160999
          -0.00033927328413 8.9387646642e-05 0.00088415418439 -0.00021594761299 5.7434034277e-05 0.00091865610783
          -0.00010909945895 2.550264946e-05 0.00094388885573 -1.1102230246e-16 3.2577343045e-09 0.00095380454607
          0.00010909945895 -2.5499294974e-05 0.00094389197928 0.00021594761299 -5.7429578089e-05 0.00091865886626
          0.00033927328413 -8.9393050082e-05 0.00088415169525 0.00045117507524 -0.00013323864367 0.00084266563662
          0.00056808055304 -0.00017987918948 0.00078369812268 0.00068307847276 -0.00021894367619 0.00071317128682
          0.00079947159987 -0.0002534826053 0.00064030228236 0.00091437663166 -0.00027258371531 0.0005566242101
          0.0010123389388 -0.00030140529045 0.0004957887909 0.0010987901486 -0.0002771343141 0.00041155109522
          0.0011730054912 -0.00018428949846 0.00030982340714 0.0012258151169 -0.00040388263377 0.00021698930414
          -0.0013279360007 0.00022807337204 0.00032170377082 -0.0012782950519 0.00036018171369 0.00040162041352
          -0.0011965471696 0.00023822662909 0.00047308489995 -0.0011030066416 0.00030677211007 0.00049608613884
          -0.00098827548445 0.00029716902018 0.00055943521992 -0.00086506058613 0.00026036459572 0.00064342058788
          -0.0007364744865 0.00022503962014 0.00071783711495 -0.00060944518174 0.00017782105841 0.0007871541998
          -0.00048872940551 0.00013145732389 0.00084454384867 -0.00036914073068 9.1768279936e-05 0.00089152575359
          -0.00024007251419 5.3663246791e-05 0.00092691402681 -0.00012114521816 2.4635594699e-05 0.00094977034792
          -4.4408920985e-16 -1.2960923446e-09 0.00095912852244 0.00012114521816 -2.4633936137e-05 0.00094977133927
          0.00024007251419 -5.3665629132e-05 0.00092691620758 0.00036914073068 -9.1764737404e-05 0.00089152638067
          0.0004887294055 -0.00013145837006 0.00084454692736 0.00060944518174 -0.00017783038701 0.00078716158368
          0.0007364744865 -0.0002250548556 0.00071785119277 0.00086506058613 -0.00026038348494 0.00064344003293
          0.00098827548445 -0.00029718653789 0.00055945609344 0.0011030066416 -0.0003068116933 0.00049610466176
          0.0011965471696 -0.00023822435227 0.00047309752743 0.0012782950519 -0.00036017000223 0.00040162847727
          0.0013279360007 -0.00022805165571 0.00032170814433 -0.0014325427651 0.00037274085234 0.00022074843128
          -0.0013759087257 0.00019777383146 0.00033700004547 -0.0012900519494 0.0003378669954 0.00044606139538
          -0.0011818602518 0.00036630206701 0.00048962095087 -0.0010593961517 0.00032135650995 0.00055932297013
          -0.00091767170705 0.00028406330986 0.00064241112563 -0.0007790190093 0.00024188041975 0.00072107017094
          -0.00065032995435 0.00019714339693 0.00078979667645 -0.00052392970054 0.00015246790701 0.00084774843452
          -0.00039245290106 0.0001070130068 0.00089758389182 -0.00026098032954 6.9089295571e-05 0.00093479499442
          -0.0001307393801 3.6087276366e-05 0.00095893747843 -7.7715611724e-16 8.3760154368e-09 0.00097104864002
          0.0001307393801 -3.6081898555e-05 0.00095893460064 0.00026098032954 -6.9093578008e-05 0.00093478923938
          0.00039245290106 -0.00010701446476 0.00089758024023 0.00052392970053 -0.00015246099595 0.00084774945521
          0.00065032995435 -0.0001971413164 0.00078980101192 0.0007790190093 -0.00024188062554 0.00072107781373
          0.00091767170705 -0.00028407147368 0.00064242246874 0.0010593961517 -0.00032136510294 0.00055933548625
          0.0011818602518 -0.00036631232007 0.00048963445729 0.0012900519494 -0.00033787875836 0.0004460717014
          0.0013759087257 -0.00019778455741 0.00033700873056 0.0014325427651 -0.00037273634108 0.00022075435591
          -0.0015066128076 0.00046921279226 0.00028745853462 -0.0014438324547 0.00029913212437 0.00041086876958
          -0.0013492649371 0.00041133706371 0.00041983772881 -0.0012424006127 0.00034939279367 0.0005151874622
          -0.0011105500012 0.00034100162053 0.00056102995055 -0.00097855178233 0.00029958046121 0.00064755215618
          -0.00084136017079 0.00025701683462 0.0007227412885 -0.00070399821256 0.00020769667319 0.00079134202417
          -0.00056213399656 0.00016433525514 0.00085567255786 -0.00042396522213 0.00012123567216 0.00090436075474
          -0.00028364189564 8.364307457e-05 0.00094209553709 -0.0001388197255 4.4993021511e-05 0.00096467042236
          -7.7715611724e-16 5.8560130078e-09 0.00097360798739 0.0001388197255 -4.499213991e-05 0.00096466909997
          0.00028364189564 -8.3643990966e-05 0.00094209321119 0.00042396522213 -0.00012123076856 0.00090435667139
          0.00056213399656 -0.00016431718214 0.0008556730873 0.00070399821256 -0.00020768221054 0.00079134309345
          0.00084136017079 -0.0002570115742 0.00072274449607 0.00097855178233 -0.00029958534914 0.00064755672006
          0.0011105500012 -0.00034100911265 0.00056103584493 0.0012424006127 -0.00034937965218 0.00051519497583
          0.0013492649371 -0.00041135707717 0.00041984473541 0.0014438324547 -0.00029915983472 0.00041087514714
          0.0015066128076 -0.00046923104468 0.00028746371639 -0.0015976066417 0.00015820331924 0.00015874654011
          -0.0015225294859 0.00036108328184 0.00033000156285 -0.0014164624894 0.00046116615131 0.00047082511866
          -0.0013104679719 0.00037880442734 0.00050374337266 -0.0011757330027 0.00036289477227 0.00055869695449
          -0.0010428986391 0.00031949237127 0.00064397396353 -0.00089763209552 0.00028289345978 0.0007275306814
          -0.0007498992328 0.00023236892975 0.00079594931518 -0.0005928908894 0.00019221665496 0.00085608558302
          -0.00044536424993 0.0001453696842 0.00090977447941 -0.00029431113973 0.00010562035758 0.00094161494337
          -0.00015185588161 6.3354889474e-05 0.00096468967726 -2.2204460493e-16 -1.4101639856e-09 0.00097146498131
          0.00015185588161 -6.335725365e-05 0.00096468964129 0.00029431113973 -0.00010560818774 0.00094161530281
          0.00044536424993 -0.00014535849117 0.00090977312098 0.0005928908894 -0.00019220328802 0.0008560852409
          0.0007498992328 -0.00023235653857 0.00079594612265 0.00089763209552 -0.00028288589476 0.0007275283808
          0.0010428986391 -0.00031949583492 0.00064397412529 0.0011757330027 -0.00036290143219 0.00055869847288
          0.0013104679719 -0.00037881732887 0.00050374695653 0.0014164624894 -0.00046118750001 0.00047082763639
          0.0015225294859 -0.00036111168301 0.00033000325959 0.0015976066417 -0.0001582251288 0.00015874755577
          -0.0016980214532 0.00053678586623 0.00020371376979 -0.0016146409853 0.00037834964119 0.00038774229925
          -0.0015052740669 0.00048536828613 0.00043279986278 -0.0013907987639 0.00040189556132 0.00049655926776
          -0.0012516277279 0.0003824938823 0.00055515963482 -0.0011087136203 0.00034207348206 0.00063969975317
          -0.00096396024802 0.00030088870626 0.00072289409467 -0.0008055016772 0.00024748504569 0.00079143159835
          -0.0006391337302 0.00020981496924 0.0008565405498 -0.00047943047767 0.00016215653538 0.0009096707239
          -0.00032373317478 0.0001200940264 0.00094499985147 -0.00016298060117 7.3224455765e-05 0.00096804872013
          -5.5511151231e-16 -7.8323432184e-09 0.00097718315917 0.00016298060117 -7.3242574882e-05 0.00096805350275
          0.00032373317478 -0.00012008456261 0.00094499959862 0.00047943047767 -0.00016214749716 0.00090967113882
          0.0006391337302 -0.00020980703844 0.00085654060274 0.0008055016772 -0.00024747201977 0.00079142625822
          0.00096396024802 -0.00030088148271 0.00072288858663 0.0011087136203 -0.00034207694129 0.00063969490632
          0.0012516277279 -0.0003824967519 0.0005551551431 0.0013907987639 -0.00040190603554 0.0004965568274
          0.0015052740669 -0.00048538660184 0.00043279633893 0.0016146409853 -0.00037837481465 0.00038773863285
          0.0016980214532 -0.00053680238605 0.00020371074335 -0.0018214345089 0.00049068069748 0.00022207065391
          -0.0017213988863 0.00035415614693 0.00043053883745 -0.0016022285306 0.00048509894792 0.00046872208408
          -0.0014766935088 0.00041867595158 0.00051161375172 -0.001326445304 0.00040149514456 0.00056036262296
          -0.0011722910804 0.00035345278944 0.00064167604789 -0.001013065177 0.00030978285379 0.00072523673072
          -0.00085762729644 0.00026350858128 0.00079629109127 -0.00068463927921 0.00022505970239 0.00085862953092
          -0.00051764247497 0.00017550617785 0.00090552769187 -0.000346890886 0.00013045695336 0.0009390487978
          -0.00017590073456 7.6690048691e-05 0.000960270074 -8.881784197e-16 -1.0388667704e-09 0.00096704397702
          0.00017590073456 -7.6711325598e-05 0.00096027646099 0.000346890886 -0.00013043120442 0.00093904884104
          0.00051764247497 -0.00017550352224 0.00090553252662 0.00068463927921 -0.00022506085235 0.00085863243767
          0.00085762729644 -0.00026350723437 0.00079628883371 0.001013065177 -0.00030977766685 0.00072523126446
          0.0011722910804 -0.00035344770636 0.00064166626308 0.001326445304 -0.00040150094755 0.00056035283167
          0.0014766935088 -0.00041868393702 0.00051160444611 0.0016022285306 -0.00048511224148 0.00046871377731
          0.0017213988863 -0.00035416998667 0.00043053272591 0.0018214345089 -0.00049068618936 0.00022206706131
          -0.0019345960419 0.00037676301422 0.0002161176967 -0.0018270590461 0.00056791208344 0.0002976636831
          -0.001702415747 0.00045876876024 0.00040814544068 -0.0015610940676 0.00042286324565 0.00048301422796
          -0.0014063487502 0.00041822066431 0.00054946894343 -0.0012382942572 0.00036971946988 0.0006343436449
          -0.0010768960616 0.00032303162593 0.00072015650965 -0.00091327002167 0.00027672842102 0.0007968787086
          -0.00073003636561 0.00023317096418 0.00086209136062 -0.00055035868428 0.00018729670965 0.00091124523915
          -0.00036292009709 0.00013212383499 0.00094295492949 -0.00017888553523 7.0694845389e-05 0.00096323136889
          -7.7715611724e-16 9.102569809e-10 0.00096084965696 0.00017888553523 -7.0681506441e-05 0.00096323194089
          0.00036292009708 -0.00013211609601 0.00094295780902 0.00055035868428 -0.00018729201157 0.00091124975474
          0.00073003636561 -0.00023317958883 0.00086209445775 0.00091327002167 -0.00027672649306 0.00079687870696
          0.0010768960616 -0.0003230286133 0.00072015224634 0.0012382942572 -0.00036972517639 0.00063433368872
          0.0014063487502 -0.00041823423088 0.00054945818981 0.0015610940676 -0.0004228677813 0.00048300432487
          0.001702415747 -0.00045877359683 0.00040813871966 0.0018270590461 -0.00056791201347 0.00029765993196
          0.0019345960419 -0.00037675780446 0.00021611605427 -0.0020582680305 0.00058078414388 0.0001737746015
          -0.0019415514732 0.00043463644578 0.00044248031265 -0.0018143401896 0.000399287796 0.00042031847337
          -0.0016563130348 0.00047883597475 0.00049333352771 -0.00149429245 0.00044140088817 0.00054636970627
          -0.001310966783 0.00039072478428 0.00063025095309 -0.0011340754232 0.0003301832578 0.00071379547423
          -0.0009610145525 0.00028305690956 0.00079768008836 -0.00077193521543 0.00023829206316 0.00086510264017
          -0.00057108403696 0.00018472546374 0.00091272465701 -0.00038039420914 0.00012740972064 0.00094119295586
          -0.00018340357427 6.7431242181e-05 0.00095273504226 -4.4408920985e-16 2.5217365973e-09 0.00095323430204
          0.00018340357427 -6.7418323016e-05 0.00095273373357 0.00038039420914 -0.00012739475836 0.00094119346355
          0.00057108403695 -0.00018472117793 0.00091272635664 0.00077193521542 -0.00023830650135 0.00086510302017
          0.0009610145525 -0.00028305868383 0.00079768041272 0.0011340754232 -0.00033019169094 0.00071379517323
          0.001310966783 -0.00039073290221 0.00063024806805 0.00149429245 -0.00044140874386 0.0005463668474
          0.0016563130348 -0.00047883969555 0.00049332985195 0.0018143401895 -0.00039928587823 0.00042031743307
          0.0019415514732 -0.0004346319578 0.00044247999566 0.0020582680305 -0.00058077760515 0.00017377493474
          -0.0021635741016 0.00031658519706 0.00030129189974 -0.0020454159418 0.00054466488088 0.00042431831807
          -0.0019046869742 0.00047094596432 0.00042404485595 -0.0017524164437 0.00051379391387 0.00049577439561
          -0.0015811039392 0.00046637838294 0.00054352233789 -0.0013853649567 0.0004158702922 0.00062601376154
          -0.0011908035068 0.00035976342905 0.00070953798601 -0.00099883904122 0.00030903834823 0.00079420486072
          -0.00080015306317 0.00025205786548 0.00086448211959 -0.00059189635208 0.00019312684151 0.00091349917287
          -0.00038902680383 0.00013157005086 0.00094194827075 -0.00019312244477 6.5616810769e-05 0.00095229572956
          -1.1102230246e-15 1.3065540427e-08 0.00095246396529 0.00019312244477 -6.5596512812e-05 0.00095229405063
          0.00038902680383 -0.0001315651313 0.00094194694153 0.00059189635208 -0.00019312361613 0.00091349808584
          0.00080015306317 -0.00025207002306 0.00086448206616 0.00099883904122 -0.00030903465635 0.00079420602175
          0.0011908035068 -0.00035975949677 0.00070953929069 0.0013853649567 -0.00041588742091 0.00062601534982
          0.0015811039392 -0.00046638896009 0.00054352603527 0.0017524164437 -0.00051379725032 0.00049577636014
          0.0019046869742 -0.00047094550957 0.00042404644034 0.0020454159418 -0.0005446613909 0.00042431958224
          0.0021635741016 -0.00031657996941 0.00030129292557 -0.0022707074361 0.00036650833205 0.0002261126525
          -0.0021487471471 0.00059092334499 0.0003871692371 -0.0020110163334 0.00051279153316 0.0004166247671
          -0.0018454877507 0.00049002547096 0.00046506397261 -0.0016625508331 0.0004948825713 0.00053951695892
          -0.0014480315524 0.0004394099712 0.00062206465133 -0.0012414776159 0.00037605319053 0.00070679425992
          -0.0010256727601 0.00032129325617 0.00078760527363 -0.00082866832823 0.00025335756826 0.0008583152718
          -0.00061529700976 0.0001942586405 0.00091261012992 -0.00041277719001 0.00012332804386 0.00094087018893
          -0.00020745965372 6.9454080147e-05 0.00095347886301 -5.5511151231e-16 4.5958168382e-09 0.00095291174896
          0.00020745965371 -6.9433233599e-05 0.00095347802484 0.00041277719001 -0.00012331907638 0.00094086906769
          0.00061529700976 -0.00019424781602 0.00091260836255 0.00082866832823 -0.00025336285384 0.00085831409684
          0.0010256727601 -0.00032128885166 0.00078760606804 0.0012414776159 -0.00037605075657 0.00070679643545
          0.0014480315524 -0.00043941356929 0.00062206938359 0.0016625508331 -0.00049489449141 0.00053952343635
          0.0018454877507 -0.00049002673911 0.00046507050378 0.0020110163334 -0.00051279358168 0.00041662951174
          0.0021487471471 -0.00059092444879 0.0003871721716 0.0022707074361 -0.00036650833205 0.00022611357741
          -0.0023942724303 0.00068660984574 0.00030274227558 -0.002267537316 0.00057131124999 0.00033827897131
          -0.0021234552851 0.00052265254692 0.00040458694134 -0.0019433731682 0.00057542758364 0.00047282956296
          -0.0017439935705 0.00052242848569 0.00053799761888 -0.0015113006148 0.00046529664407 0.00062502915694
          -0.0012850751756 0.00039606650672 0.00070664132359 -0.0010632661707 0.00033491949515 0.0007856641783
          -0.0008594338903 0.00027149388134 0.00085614657662 -0.00064767930734 0.00020019591626 0.00090899467435
          -0.00043352420005 0.00012961167184 0.00094058133395 -0.00022098845123 7.056960455e-05 0.00095489856868
          -5.5511151231e-16 5.1966346781e-09 0.00095670662277 0.00022098845123 -7.0550492083e-05 0.00095489795319
          0.00043352420005 -0.00012959941234 0.00094057863388 0.00064767930733 -0.00020018846061 0.00090898973896
          0.0008594338903 -0.0002714983364 0.00085614155355 0.0010632661707 -0.00033491248055 0.00078566252036
          0.0012850751756 -0.00039606303528 0.00070664139013 0.0015113006148 -0.00046530383443 0.000625034216
          0.0017439935704 -0.00052243496287 0.00053800351929 0.0019433731682 -0.00057543053382 0.00047283583028
          0.0021234552851 -0.00052265822814 0.00040459161109 0.002267537316 -0.00057131951646 0.00033828194765
          0.0023942724303 -0.00068661664452 0.00030274376386 -0.0024785116977 0.00057655781692 0.00017469637109
          -0.0023510220161 0.00050088858391 0.00041743462884 -0.0022066056116 0.00050178869612 0.0004667967277
          -0.0020243654729 0.00058121891415 0.00047648825613 -0.0018140255008 0.00054226761574 0.0005394824201
          -0.0015801871019 0.00048149102987 0.00062836299449 -0.0013439812651 0.00041039630957 0.00070892814284
          -0.0011208505444 0.00034551000813 0.00078467760186 -0.00090409489101 0.0002839325424 0.00085377321504
          -0.00067531415244 0.00020691950833 0.0009057674019 -0.00045267884226 0.00013285217705 0.00093892639295
          -0.00022385388156 6.777004601e-05 0.00096001085943 -5.5511151231e-16 2.4314421587e-09 0.00096709936808
          0.00022385388156 -6.7776258156e-05 0.00096000710564 0.00045267884226 -0.00013282087396 0.00093892647483
          0.00067531415244 -0.00020691912364 0.00090576226555 0.00090409489101 -0.00028392853614 0.00085376756178
          0.0011208505444 -0.00034550192361 0.00078467412112 0.0013439812651 -0.00041039216372 0.00070892448696
          0.0015801871019 -0.00048149065462 0.00062836254384 0.0018140255008 -0.00054226801936 0.0005394840196
          0.0020243654729 -0.00058122298054 0.00047648934551 0.0022066056116 -0.00050179721862 0.00046679793358
          0.0023510220161 -0.00050090133836 0.00041743630853 0.0024785116977 -0.00057657115444 0.00017469819262
          -0.002576591158 0.00075595059072 0.00021816120373 -0.0024361969076 0.00063992656041 0.00033865380465
          -0.0022970382191 0.00060250429887 0.00044542062119 -0.0021094728858 0.00058464355276 0.00048146697752
          -0.0018969653509 0.00056920051297 0.00054590325303 -0.001650021933 0.00050225543198 0.00063079287003
          -0.0014092037539 0.0004205371397 0.00071281209287 -0.0011666331684 0.00035487390077 0.00078799818725
          -0.00093913050007 0.00028622125566 0.00084968831658 -0.00069427714709 0.00021633440504 0.00089751377262
          -0.00045610936437 0.00013394621509 0.0009317566853 -0.00023057929757 7.4290619875e-05 0.00095145527835
          -7.7715611724e-16 -7.3096095843e-10 0.00096083267144 0.00023057929757 -7.4291865148e-05 0.00095145031345
          0.00045610936437 -0.00013393570722 0.00093175625984 0.00069427714708 -0.00021633146787 0.00089750949122
          0.00093913050007 -0.00028620937579 0.00084968326879 0.0011666331684 -0.0003548631739 0.00078799481844
          0.0014092037539 -0.00042052900385 0.00071280958178 0.001650021933 -0.000502249152 0.00063079074503
          0.0018969653509 -0.00056919962928 0.0005459002721 0.0021094728858 -0.00058464797467 0.0004814659484
          0.0022970382191 -0.00060251448913 0.0004454200095 0.0024361969076 -0.00063994183997 0.00033865348765
          0.002576591158 -0.00075596874522 0.00021816153697 -0.002677431592 0.00046371344784 0.00023970703064
          -0.0025414253427 0.00073116880051 0.00039552026221 -0.0023881233371 0.00065865368785 0.00041841210089
          -0.0021962212695 0.0006184826662 0.00050830635135 -0.0019695526063 0.00058207957452 0.00054533527013
          -0.0017188597555 0.00052391058711 0.00063240608628 -0.0014625375582 0.00044485735018 0.00071108298745
          -0.0012123610388 0.00036423371887 0.00079021543121 -0.00096667234241 0.00029941062323 0.00085426326425
          -0.00071730593674 0.00022682640847 0.00089651934482 -0.00047616344002 0.00015156548588 0.00093049933847
          -0.0002350724713 8.0848037843e-05 0.0009543893354 -5.5511151231e-16 -9.3563486958e-09 0.00096747826815
          0.0002350724713 -8.084602137e-05 0.00095439003227 0.00047616344002 -0.00015156492778 0.00093049732038
          0.00071730593674 -0.00022682313132 0.00089651748798 0.00096667234241 -0.00029940135581 0.00085425837801
          0.0012123610388 -0.00036422418353 0.00079021162317 0.0014625375582 -0.0004448519485 0.00071107984346
          0.0017188597555 -0.00052390607684 0.00063240097978 0.0019695526063 -0.00058207472876 0.00054532959734
          0.0021962212695 -0.00061848650252 0.00050830318756 0.0023881233371 -0.00065866250427 0.00041840946892
          0.0025414253427 -0.00073118205516 0.00039551809269 0.002677431592 -0.00046372794583 0.00023970520912
          -0.0027864617654 0.00045773046574 0.00024886701785 -0.0026381953414 0.00073857300699 0.00043495745548
          -0.0024740654808 0.0006675935927 0.00046525526075 -0.002270281198 0.00062753398959 0.00050517615495
          -0.0020303805312 0.00059626929091 0.00055229271667 -0.001767919335 0.00053845531808 0.00063324391892
          -0.0015058919591 0.00046157370572 0.00071413386954 -0.0012458976552 0.00037810256148 0.00079471959655
          -0.00099684560064 0.00031280109703 0.00085341277708 -0.00074940948263 0.00023730395782 0.00089934045166
          -0.00049893777848 0.00016416039451 0.00093155694218 -0.00024824087993 8.8417643828e-05 0.00095796254128
          -5.5511151231e-16 3.7635881078e-09 0.0009678050996 0.00024824087993 -8.8432261547e-05 0.00095796352031
          0.00049893777848 -0.00016415948921 0.00093155585708 0.00074940948263 -0.0002373046511 0.00089933863967
          0.00099684560064 -0.00031280361379 0.0008534072894 0.0012458976552 -0.00037809753273 0.00079471550408
          0.0015058919591 -0.00046156628973 0.00071412762349 0.001767919335 -0.00053845381588 0.00063323810567
          0.0020303805312 -0.00059626556644 0.00055228617912 0.002270281198 -0.00062753192131 0.00050516971749
          0.0024740654808 -0.00066759609596 0.0004652501551 0.0026381953414 -0.00073857760078 0.0004349538908
          0.0027864617654 -0.00045773569338 0.00024886440062 -0.0028929559687 0.00072748381906 0.00022095846962
          -0.0027377932604 0.0006627018466 0.00030791075657 -0.0025630297338 0.00063874241776 0.00040956791298
          -0.002346156274 0.00062560146812 0.00049408581814 -0.0020956114229 0.00061687506029 0.00054776560909
          -0.001822832961 0.00055540024944 0.00063344298428 -0.0015570591829 0.00047868101072 0.00071325229286
          -0.0012871722795 0.00039597670061 0.00079183334999 -0.0010264655538 0.00032489531484 0.00085118792906
          -0.00077721155011 0.00025522110867 0.00089814630403 -0.000522197571 0.00018142818667 0.00093073140748
          -0.00026494587949 9.9925672927e-05 0.00095356202361 -8.881784197e-16 4.9257899981e-09 0.00096695371366
          0.00026494587948 -9.9919550934e-05 0.00095356118898 0.00052219757099 -0.00018144495077 0.00093073298849
          0.00077721155011 -0.00025523497517 0.00089814553363 0.0010264655538 -0.00032489650918 0.00085118514789
          0.0012871722795 -0.00039597652658 0.000791831756 0.0015570591829 -0.00047868459172 0.00071324995979
          0.001822832961 -0.00055540388352 0.00063343942148 0.0020956114229 -0.00061687901658 0.00054775923487
          0.002346156274 -0.00062560183255 0.00049408147126 0.0025630297338 -0.00063874166909 0.00040956443615
          0.0027377932604 -0.00066269785643 0.00030790753754 0.0028929559687 -0.00072747743094 0.00022095651888
          -0.0030008758237 0.00051838849131 0.00017010911091 -0.0028395362465 0.0005236731719 0.00030502985535
          -0.0026507081171 0.00072477067237 0.00042911482172 -0.0024290316576 0.00067680695851 0.00050755771979
          -0.0021694004473 0.00062960550809 0.0005500076007 -0.0018881050108 0.00056133603642 0.00063414223585
          -0.0016111670172 0.00048818057879 0.00071806521038 -0.001338725642 0.00041657723432 0.00079113635655
          -0.0010687901029 0.0003384338616 0.00085362450085 -0.00080714798205 0.00025662610247 0.00089730308847
          -0.00054195739094 0.00018393556452 0.00092813858719 -0.00027174095041 9.8036585881e-05 0.00095018738269
          -4.4408920985e-16 4.5670334181e-10 0.00095812767383 0.00027174095041 -9.8050310893e-05 0.00095018856336
          0.00054195739094 -0.0001839222331 0.00092813740793 0.00080714798204 -0.00025662782575 0.00089730386128
          0.0010687901029 -0.00033843295457 0.00085362633411 0.0013387256419 -0.00041658049456 0.00079113595789
          0.0016111670172 -0.00048817802149 0.00071806309151 0.0018881050108 -0.00056133299456 0.00063413817991
          0.0021694004473 -0.00062960486687 0.00055000124384 0.0024290316576 -0.00067680525671 0.00050755280571
          0.0026507081171 -0.00072476645727 0.00042911143273 0.0028395362465 -0.00052366665901 0.00030502851687
          0.0030008758237 -0.00051837829607 0.00017010888079 -0.0031065121359 0.00057758347627 0.00028013780435
          -0.0029387312747 0.00057821718821 0.00028263529033 -0.0027444033049 0.00061465108463 0.00044203493946
          -0.0025128523111 0.00071561288216 0.0004889256496 -0.0022434053207 0.00065829731165 0.00055267239892
          -0.0019590198013 0.0005849680402 0.00064277519431 -0.0016766463768 0.00051099649729 0.00072254797683
          -0.0013926317899 0.00043508883671 0.00079433146133 -0.0011139684731 0.00035953832591 0.0008517058817
          -0.00084207015731 0.00027579775662 0.00089464837471 -0.00056248147506 0.0001893569492 0.00092495297429
          -0.00028056131827 9.3052091467e-05 0.00094220004148 -8.881784197e-16 -9.3817157376e-09 0.00094284061686
          0.00028056131827 -9.3060490922e-05 0.00094220304685 0.00056248147506 -0.00018934717977 0.00092495231656
          0.0008420701573 -0.00027579732461 0.00089465040175 0.0011139684731 -0.00035954617615 0.00085170967038
          0.0013926317899 -0.00043509347365 0.00079433391649 0.0016766463768 -0.00051099997716 0.00072254892562
          0.0019590198013 -0.00058497477838 0.00064277437771 0.0022434053207 -0.00065829576398 0.00055266907015
          0.0025128523111 -0.00071560940134 0.0004889240766 0.0027444033049 -0.00061464393596 0.00044203397527
          0.0029387312747 -0.00057820645867 0.00028263520118 0.0031065121359 -0.00057757379526 0.00028013859783
          -0.0032060600008 0.00053945377507 0.00018439472614 -0.0030326870964 0.00056076314676 0.00040315003009
          -0.0028377361358 0.00062431955842 0.00045001711093 -0.0025973314514 0.00074325207188 0.00050441361335
          -0.0023263015063 0.00069482057056 0.00055299163763 -0.0020370586562 0.00061537569706 0.00064667103263
          -0.0017471744111 0.00053334790686 0.00072857051319 -0.0014551502024 0.00045449422399 0.000794720926
          -0.0011600578666 0.00036917970667 0.00085183110775 -0.00087777411349 0.00028216049598 0.00089319480789
          -0.00058901196225 0.00019348060451 0.00092345808339 -0.00029484066749 9.1037317196e-05 0.00094237518985
          -7.7715611724e-16 5.1514075228e-09 0.00094799727173 0.00029484066749 -9.1036750104e-05 0.00094237588171
          0.00058901196225 -0.00019349217283 0.00092345789608 0.00087777411349 -0.0002821639113 0.0008931978124
          0.0011600578666 -0.00036918339674 0.00085183570691 0.0014551502024 -0.00045449985022 0.00079472419607
          0.0017471744111 -0.00053334869912 0.00072857299522 0.0020370586562 -0.00061537577127 0.00064667356863
          0.0023263015063 -0.00069482458248 0.00055299225676 0.0025973314514 -0.00074324748044 0.00050441507646
          0.0028377361358 -0.00062431049894 0.00045001823341 0.0030326870964 -0.00056075114556 0.00040315089359
          0.0032060600008 -0.00053944347039 0.00018439495848 -0.0033149884116 0.00075311063305 0.00025816339662
          -0.0031416726398 0.00075013068986 0.00035659986833 -0.0029367501904 0.00075774093906 0.0004505370469
          -0.0026914813089 0.00076315353269 0.00048248307618 -0.0024124047298 0.00073309546267 0.00055497020331
          -0.0021171640112 0.00065324206315 0.00064561197066 -0.0018114184405 0.00056233720187 0.00072835740989
          -0.0015106392345 0.00047183409373 0.00078969392839 -0.0012123458619 0.00037411019905 0.00084740269476
          -0.00091735121247 0.0002832603306 0.00089162901351 -0.00061903793773 0.00019107073882 0.00092513330784
          -0.0003118512296 9.0522333503e-05 0.0009458337517 -7.7715611724e-16 -1.4342733667e-09 0.00095119390382
          0.0003118512296 -9.0526013055e-05 0.00094583256664 0.00061903793773 -0.00019104853134 0.00092513254866
          0.00091735121247 -0.0002832539949 0.00089163189232 0.0012123458619 -0.00037411811401 0.00084740515785
          0.0015106392345 -0.00047183401234 0.0007896972298 0.0018114184405 -0.00056233688288 0.00072836028998
          0.0021171640112 -0.00065325292945 0.00064561495012 0.0024124047298 -0.00073309116957 0.00055497236642
          0.0026914813089 -0.00076315290714 0.00048248515059 0.0029367501904 -0.00075773420105 0.00045053847299
          0.0031416726397 -0.00075012405631 0.00035660035816 0.0033149884116 -0.00075310602907 0.00025816339662
          -0.0034123533297 0.0008638827119 0.00013543684414 -0.0032355936591 0.00085201150834 0.00030714000164
          -0.0030278235165 0.00083807112839 0.00044821384031 -0.0027759454137 0.00081738705943 0.00049360507747
          -0.0024986482031 0.00077541954523 0.00055637139416 -0.0021910708431 0.00069361132096 0.00064209807569
          -0.0018836891456 0.00058910287079 0.00072105297072 -0.0015703253746 0.00048552971491 0.00078308406652
          -0.0012608639648 0.00038122622765 0.00084566203817 -0.00095625183659 0.00028947674412 0.00089112283575
          -0.00064919752976 0.00019530142032 0.00092975124213 -0.00032321583296 9.8225748917e-05 0.00095666612242
          -2.2204460493e-16 5.293675498e-09 0.00096611227921 0.00032321583296 -9.823395138e-05 0.0009566642386
          0.00064919752975 -0.00019530018034 0.00092975102976 0.00095625183659 -0.0002894802875 0.00089112205237
          0.0012608639648 -0.00038122787467 0.00084566341728 0.0015703253746 -0.00048552974491 0.00078308419962
          0.0018836891456 -0.0005891113319 0.00072105284198 0.0021910708431 -0.0006936187613 0.0006420980545
          0.0024986482031 -0.0007754219766 0.00055637184724 0.0027759454137 -0.00081738301621 0.00049360376833
          0.0030278235165 -0.00083806319835 0.00044821295101 0.0032355936591 -0.00085200207602 0.00030713987065
          0.0034123533297 -0.00086387397836 0.00013543707426 -0.0035229254009 0.0008576356054 0.00018555142367
          -0.0033443046378 0.00087633419719 0.00039169207239 -0.0031274001824 0.0008740783731 0.00044503753156
          -0.0028761661094 0.00085505269759 0.00050641892582 -0.0025891040135 0.00080822657913 0.0005609198668
          -0.0022703308481 0.00072122659122 0.00064312955642 -0.0019434850955 0.00061071030089 0.00072293307859
          -0.0016238430184 0.00050048331925 0.00078442239434 -0.0013034683145 0.00039171774362 0.00084135469694
          -0.00098473025855 0.0002943579465 0.0008937206919 -0.00065677779789 0.00019763424028 0.00093372020638
          -0.0003346192658 0.00010315829227 0.00096479842822 -5.5511151231e-16 -2.6561308708e-11 0.00096838044296
          0.0003346192658 -0.00010315448398 0.00096479830335 0.00065677779789 -0.00019763580596 0.00093372049394
          0.00098473025854 -0.0002943660326 0.00089372101793 0.0013034683144 -0.00039172508164 0.00084135293134
          0.0016238430184 -0.0005004843989 0.00078442276005 0.0019434850955 -0.00061070912839 0.00072293225993
          0.0022703308481 -0.00072123639143 0.00064312931463 0.0025891040135 -0.00080823318842 0.00056091964962
          0.0028761661094 -0.0008550517363 0.00050641816055 0.0031274001824 -0.00087407054974 0.00044503699477
          0.0033443046378 -0.00087632438875 0.00039169171355 0.0035229254009 -0.00085762958089 0.00018555119355
          -0.0036331433298 0.00073645022285 0.00021395432759 -0.0034534908112 0.00079446348914 0.00031221688554
          -0.0032291770797 0.00085337230033 0.00042395377045 -0.0029749794122 0.00085388349664 0.0005110612802
          -0.0026824306987 0.00082711543123 0.00056147546481 -0.0023475692678 0.0007371995666 0.0006438475416
          -0.0020124351563 0.00062483632346 0.0007220750729 -0.001674764704 0.00051640377769 0.00078422043265
          -0.0013370702015 0.00041033828653 0.00084513198669 -0.0010037348948 0.00030709216122 0.00090175737664
          -0.00066903396147 0.00020983558787 0.00094162659622 -0.00033226747203 0.00010812598625 0.00096887792455
          -8.881784197e-16 6.4000702515e-09 0.00097966994817 0.00033226747203 -0.00010813101574 0.00096887707846
          0.00066903396147 -0.00020983713544 0.00094162420829 0.0010037348948 -0.00030709221158 0.0009017558971
          0.0013370702015 -0.00041033930934 0.00084513165655 0.001674764704 -0.0005164016026 0.00078421928075
          0.0020124351563 -0.00062484043207 0.00072207472029 0.0023475692678 -0.00073720717537 0.00064384829058
          0.0026824306987 -0.00082712114568 0.00056147879767 0.0029749794122 -0.0008538805091 0.00051106320064
          0.0032291770797 -0.00085336637472 0.00042395496337 0.0034534908112 -0.00079445576663 0.00031221664284
          0.0036331433298 -0.0007364413387 0.00021395386513 -0.0037522617169 0.00085916361046 0.00021916555913
          -0.0035579672336 0.00090517734555 0.00036287993869 -0.0033323254193 0.00093081578783 0.00047543794425
          -0.003064772205 0.00090026328336 0.00051049802593 -0.0027654971292 0.00084998835552 0.00056223245357
          -0.0024191625289 0.00075371932548 0.00064636350658 -0.0020739975811 0.00064485224117 0.0007260742848
          -0.0017205542783 0.00054326734754 0.00079181166794 -0.0013748410634 0.00043786791373 0.00085489667775
          -0.0010201956521 0.00032616275726 0.00090487675812 -0.00067624941768 0.00021850978594 0.00094762984048
          -0.00033581718046 0.00011495147236 0.0009705309247 -8.881784197e-16 -2.4905186802e-09 0.00098315644855
          0.00033581718046 -0.00011495495009 0.00097053065134 0.00067624941768 -0.00021849247147 0.00094763124269
          0.0010201956521 -0.00032616258616 0.00090487401377 0.0013748410634 -0.00043786959934 0.00085489480284
          0.0017205542783 -0.00054327009014 0.00079181138925 0.0020739975811 -0.00064485136401 0.00072607453865
          0.0024191625289 -0.00075372241654 0.0006463660411 0.0027654971292 -0.00084999194208 0.00056223598565
          0.003064772205 -0.00090026608918 0.00051050128343 0.0033323254193 -0.00093081386564 0.00047544021521
          0.0035579672336 -0.0009051713925 0.00036288147803 0.0037522617169 -0.00085915550059 0.00021916568835
          -0.0038632402166 0.00087338582215 0.00018396010422 -0.0036564030724 0.00091701403621 0.00038815224148
          -0.0034236411779 0.00078608185832 0.00044404188904 -0.0031502053507 0.00085879664477 0.00050763988692
          -0.0028359592861 0.00086515748605 0.00056614473579 -0.0024851817634 0.00077215929189 0.00064902471798
          -0.0021253813476 0.00065748478354 0.00072961507017 -0.0017697674649 0.00055280390046 0.00079728708824
          -0.0014076998026 0.00045542574853 0.00085710807174 -0.0010394910083 0.00034984416129 0.00090960091313
          -0.00069041345573 0.00022971490103 0.00094762593524 -0.00034469182088 0.00011875954805 0.00097131357645
          -8.881784197e-16 2.8133646524e-09 0.00098050484398 0.00034469182088 -0.000118755243 0.00097131476236
          0.00069041345572 -0.00022972858583 0.00094762776207 0.0010394910083 -0.00034984736009 0.00090959934352
          0.0014076998026 -0.00045541953294 0.00085710648172 0.0017697674649 -0.000552801202 0.00079728808291
          0.0021253813476 -0.00065748607681 0.00072961745729 0.0024851817634 -0.00077216517793 0.00064902738188
          0.0028359592861 -0.00086516016618 0.0005661488276 0.0031502053507 -0.00085879181901 0.00050764407983
          0.0034236411779 -0.00078607814205 0.00044404513269 0.0036564030724 -0.0009170104073 0.000388154728
          0.0038632402166 -0.00087338100517 0.0001839615925 -0.0039603754157 0.00075195071608 0.0003124956789
          -0.0037457935564 0.00083258466972 0.0003946622324 -0.0035052330409 0.00091185006302 0.00047257291659
          -0.0032257461452 0.00092125316511 0.00049979904631 -0.0029045280268 0.00088348900087 0.00056517937299
          -0.0025430073718 0.00078956535746 0.0006515654067 -0.0021763424499 0.00068101311235 0.00073485414339
          -0.0018085027419 0.00057704083645 0.00080265315755 -0.0014379081877 0.00047435149811 0.0008615909292
          -0.0010664513219 0.00035357249945 0.00090605921632 -0.00070738083383 0.00023236632647 0.00093979249707
          -0.0003503308088 0.00012071157356 0.00096468163969 -1.1102230246e-15 -7.9628922345e-09 0.00097235810008
          0.0003503308088 -0.00012071365377 0.000964682237 0.00070738083383 -0.00023237060707 0.00093979153919
          0.0010664513219 -0.00035356940756 0.00090605713028 0.0014379081877 -0.00047434613213 0.00086158878741
          0.0018085027419 -0.00057703696101 0.00080265344921 0.0021763424499 -0.00068101299158 0.00073485535569
          0.0025430073718 -0.00078956111027 0.00065156646701 0.0029045280268 -0.00088348845935 0.00056518151246
          0.0032257461452 -0.0009212537507 0.00049980118097 0.0035052330409 -0.00091185143685 0.00047257493688
          0.0037457935564 -0.00083258669463 0.00039466408492 0.0039603754157 -0.00075195437258 0.00031249783367
          -0.0040674817111 0.00086579228864 0.00023018403061 -0.0038410778588 0.00092734472512 0.00038767861934
          -0.0035990861973 0.00098016182955 0.00041651767188 -0.003303059247 0.00090085090221 0.00051666083772
          -0.0029654556561 0.00090899200283 0.00056296676757 -0.0025956902172 0.00081527343268 0.00065391015794
          -0.0022251152319 0.0007055325304 0.00073473270091 -0.001857387649 0.00059261905673 0.00080793565137
          -0.0014741779944 0.00048110659829 0.00086574209315 -0.0010998098037 0.00036455919979 0.0009032841975
          -0.00072640017249 0.00024412332402 0.00093378028837 -0.00036374616331 0.00012454064109 0.0009501496625
          -7.7715611724e-16 -7.9449633539e-09 0.0009587274583 0.00036374616331 -0.00012455401187 0.00095014753388
          0.00072640017249 -0.00024412104367 0.00093378014738 0.0010998098037 -0.00036455482445 0.00090328308472
          0.0014741779944 -0.00048109833956 0.00086573916554 0.001857387649 -0.0005926092707 0.00080793443313
          0.0022251152319 -0.00070553372774 0.00073473171418 0.0025956902172 -0.00081526543646 0.00065390888903
          0.0029654556561 -0.00090898707909 0.00056296368445 0.003303059247 -0.00090085106842 0.00051665996258
          0.0035990861973 -0.00098016404567 0.00041651729337 0.0038410778588 -0.00092735117837 0.00038767903486
          0.0040674817111 -0.00086580155899 0.00023018482631 -0.0041617248026 0.00083951424809 0.00013786562741
          -0.0039275782428 0.00092050998639 0.0003687066202 -0.0036681621518 0.00098834048576 0.00043554989749
          -0.0033660004117 0.00098088606378 0.00050116408062 -0.0030242432718 0.00092768709862 0.00055817455556
          -0.0026391890899 0.00083293058009 0.00064613103186 -0.0022727550214 0.00072859843042 0.00073068794529
          -0.0018932011875 0.00061158147249 0.00080334499489 -0.001510302335 0.00049119233746 0.00086255167508
          -0.0011296331238 0.00036453224558 0.00089614541133 -0.00074757625411 0.00024554436969 0.00091983407815
          -0.00037607927648 0.0001265402141 0.00093405207026 -1.2212453271e-15 1.2226755164e-09 0.00093904106177
          0.00037607927648 -0.00012653938464 0.00093405503187 0.00074757625411 -0.000245552948 0.00091983756963
          0.0011296331238 -0.00036452560457 0.00089614570015 0.001510302335 -0.00049117765399 0.00086254708842
          0.0018932011875 -0.00061157556223 0.00080334297624 0.0022727550214 -0.00072860228684 0.0007306842726
          0.0026391890899 -0.00083293212354 0.00064612641161 0.0030242432718 -0.00092768099214 0.0005581695615
          0.0033660004117 -0.00098088446857 0.00050115960769 0.0036681621518 -0.00098833943031 0.00043554637623
          0.0039275782428 -0.0009205123288 0.0003687043197 0.0041617248026 -0.00083952272157 0.000137864036
          -0.0042649350573 0.0010585475261 0.00021500574691 -0.0040238160917 0.00081471994465 0.00033789303468
          -0.0037517259138 0.00093531227313 0.00044636712686 -0.0034435405836 0.00097505698224 0.0004772914841
          -0.0030873341342 0.00093929030956 0.00054963586375 -0.0026988104067 0.00084632521929 0.00063927635986
          -0.002320846836 0.00074604556781 0.00072518127285 -0.0019317733345 0.0006243502033 0.00080022457772
          -0.0015455403193 0.00049700203821 0.00085127152312 -0.0011520953777 0.00036699588498 0.00089403860919
          -0.00076634122478 0.00024378449901 0.00091923123014 -0.00038290992868 0.00012811224409 0.00092899641156
          -7.7715611724e-16 6.7134764414e-10 0.00093430238212 0.00038290992868 -0.0001280988283 0.0009289940447
          0.00076634122478 -0.0002438183315 0.00091923545528 0.0011520953777 -0.00036701294768 0.0008940408992
          0.0015455403193 -0.00049699008311 0.0008512663099 0.0019317733345 -0.00062435019239 0.00080022205256
          0.002320846836 -0.0007460476133 0.00072517845112 0.0026988104067 -0.00084633213973 0.00063927233452
          0.0030873341342 -0.00093929373013 0.0005496331219 0.0034435405836 -0.00097505159067 0.00047728827623
          0.0037517259138 -0.00093530776544 0.00044636410343 0.0040238160917 -0.00081471364105 0.0003378893583
          0.0042649350573 -0.0010585424491 0.00021500243711 -0.0043625441122 0.0011154167147 0.00027343481243
          -0.0041182988824 0.00086708674094 0.000303602245 -0.0038402633452 0.00098431663295 0.00046321902241
          -0.003521399275 0.0010061181882 0.00050172094598 -0.0031533488762 0.00096694008839 0.00055895002668
          -0.0027512135067 0.00086140102049 0.00064038743766 -0.0023655795688 0.00075978949741 0.00072068198812
          -0.0019719908192 0.00063769286985 0.00079490883877 -0.0015751524824 0.00050303684932 0.00084849952918
          -0.0011828618423 0.00036897213883 0.0008922113828 -0.00079038487954 0.00024752254963 0.00091531454426
          -0.00039433671403 0.00012555482869 0.00092500826519 -4.4408920985e-16 3.9944507702e-09 0.00092862352368
          0.00039433671403 -0.00012554916427 0.00092500968254 0.00079038487954 -0.00024754906221 0.00091531628483
          0.0011828618423 -0.00036897416293 0.00089221368093 0.0015751524824 -0.00050302521123 0.00084849751004
          0.0019719908192 -0.00063770070571 0.00079490710935 0.0023655795688 -0.00075979653182 0.00072067970408
          0.0027512135067 -0.00086139400695 0.00064038577246 0.0031533488762 -0.00096693179354 0.00055894995484
          0.003521399275 -0.0010061172239 0.00050171909134 0.0038402633452 -0.00098431299891 0.00046321727974
          0.0041182988824 -0.00086707886879 0.00030360020647 0.0043625441122 -0.0011154036372 0.00027343276079
          -0.0044792214298 0.0010299848524 0.00031516310808 -0.0042301391646 0.00081608520904 0.00039491829401
          -0.0039399442399 0.00095927289971 0.00047065809193 -0.0036105701876 0.001007927204 0.00052342862489
          -0.003225408578 0.00097723429242 0.00056529172155 -0.002817836796 0.00086908902326 0.00064591432579
          -0.0024149461201 0.00076793318139 0.0007263183859 -0.0020164380304 0.00064831568825 0.00079268585984
          -0.0016157370248 0.00051187667725 0.0008425963236 -0.0012153504353 0.0003751280244 0.00088470267167
          -0.00081713046638 0.00024198242329 0.00091374225314 -0.00040978125917 0.00012229550268 0.00092702904808
          -2.2204460493e-16 5.2102477888e-09 0.00092698010009 0.00040978125917 -0.00012228878079 0.00092703081969
          0.00081713046637 -0.00024199489679 0.00091374432173 0.0012153504353 -0.00037513721867 0.00088470531137
          0.0016157370248 -0.00051186839542 0.00084259726842 0.0020164380304 -0.00064832305958 0.00079268767134
          0.0024149461201 -0.00076794182369 0.00072632053095 0.002817836796 -0.00086908236657 0.00064591539774
          0.003225408578 -0.00097723435345 0.00056529247113 0.0036105701876 -0.0010079226645 0.00052342928027
          0.0039399442399 -0.00095926793593 0.00047065878702 0.0042301391646 -0.00081607470597 0.0003949194272
          0.0044792214298 -0.001029968269 0.00031516436403 -0.004590601283 0.0011574399595 0.00032760031575
          -0.0043383506297 0.00092460885127 0.00032912172911 -0.0040437597261 0.0010388206191 0.00047472374167
          -0.0037004170819 0.0010538372317 0.00051444644695 -0.0033150872954 0.0010044558939 0.0005753421621
          -0.0028996992395 0.00089243346708 0.00065262111558 -0.0024841214806 0.00077794647634 0.0007309548987
          -0.0020745712819 0.00065584382726 0.00079616024048 -0.0016584077279 0.00051765626921 0.00084764989378
          -0.00124658867 0.0003783729491 0.00088937520006 -0.00083910756134 0.00024416137698 0.00091502112816
          -0.0004191482628 0.00011877603104 0.00092652580029 -5.5511151231e-16 2.0092265629e-09 0.00093180571506
          0.0004191482628 -0.00011875664319 0.00092652805187 0.00083910756134 -0.00024419059371 0.00091502143134
          0.00124658867 -0.00037837265637 0.00088937595065 0.0016584077279 -0.00051764369399 0.00084765545355
          0.0020745712819 -0.00065584733852 0.00079616295147 0.0024841214806 -0.00077795731377 0.00073095949593
          0.0028996992395 -0.00089242220626 0.00065262678872 0.0033150872953 -0.0010044554516 0.00057534657191
          0.0037004170819 -0.0010538357798 0.00051445096397 0.0040437597261 -0.0010388166925 0.0004747276544
          0.0043383506297 -0.0009246011884 0.00032912553648 0.004590601283 -0.0011574320002 0.00032760339544
          -0.0046916435859 0.0011445617749 0.00031630439732 -0.0044384037048 0.00093255619464 0.00038441542544
          -0.0041429158383 0.0010574807352 0.00045895018891 -0.0037966125543 0.001084308203 0.00052914674032
          -0.0034073331763 0.0010266590681 0.00058186924917 -0.0029808568407 0.00091490206023 0.00065789167101
          -0.0025482896847 0.00079418266576 0.000737150604 -0.00212421694 0.00066898904315 0.00080167720657
          -0.0016995746258 0.00052964394959 0.00085036735482 -0.0012797506365 0.00038391546558 0.00089273381109
          -0.0008573972475 0.0002430294874 0.00091730528085 -0.00042823242661 0.00012225418308 0.00093072837233
          -1.1102230246e-16 4.2782313248e-09 0.0009340265713 0.00042823242661 -0.0001222472848 0.00093072904303
          0.00085739724749 -0.00024303480854 0.00091730882325 0.0012797506365 -0.00038390501328 0.00089273693315
          0.0016995746258 -0.00052962927216 0.00085037561035 0.00212421694 -0.00066898694957 0.00080168174965
          0.0025482896847 -0.00079418755625 0.00073715716856 0.0029808568407 -0.00091489574274 0.0006578988296
          0.0034073331763 -0.0010266558628 0.00058187447403 0.0037966125543 -0.0010843078386 0.00052915317778
          0.0041429158383 -0.0010574814839 0.00045895529456 0.0044384037048 -0.00093256018482 0.00038441899012
          0.0046916435859 -0.0011445681631 0.00031630701454 -0.004785768068 0.00098081472945 0.00028743096585
          -0.0045410804753 0.0011162783938 0.00042590996888 -0.0042386470293 0.0010185140579 0.00044103402195
          -0.0038940429795 0.0010870029745 0.00054095979798 -0.0034961678189 0.0010492341443 0.00059145359521
          -0.0030540759811 0.00093605162974 0.00066865437094 -0.0026156198956 0.00080284790137 0.00074006370548
          -0.002182054964 0.0006638925512 0.0008040469164 -0.0017435026571 0.00051929329549 0.00085312910576
          -0.0013112357525 0.0003744379415 0.00089309272269 -0.0008781508707 0.00023436177704 0.00091815558792
          -0.00044052004443 0.00011375576488 0.00093440803021 -1.2212453271e-15 -1.0078138324e-09 0.00094035816694
          0.00044052004442 -0.0001137495621 0.00093440592069 0.0008781508707 -0.00023436687441 0.00091815817846
          0.0013112357525 -0.00037442064535 0.00089309558759 0.0017435026571 -0.00051928019624 0.00085313675935
          0.002182054964 -0.00066388697211 0.00080404909326 0.0026156198956 -0.00080284717237 0.00074006539262
          0.0030540759811 -0.00093605186678 0.00066865550964 0.0034961678189 -0.0010492294476 0.00059145554819
          0.0038940429795 -0.0010870037263 0.00054096071722 0.0042386470293 -0.0010185176478 0.00044103479193
          0.0045410804753 -0.0011162868719 0.00042591106023 0.004785768068 -0.0009808276563 0.00028743165843
          -0.0048667606997 0.0010199070999 0.00022758124345 -0.0046264364162 0.0011663621989 0.00043579913885
          -0.0043277150743 0.0010664069483 0.00048092183386 -0.0039831968805 0.0011261608157 0.00053753368101
          -0.0035848788922 0.0010736005373 0.00058822068638 -0.0031340650698 0.00095305904155 0.00066991470698
          -0.0026820537603 0.00081208725072 0.00073973521147 -0.0022284494638 0.0006636105635 0.00080531014061
          -0.0017839330762 0.00051858474608 0.00085585331781 -0.001345553061 0.00037017518965 0.00089640673461
          -0.00090237723686 0.00023211915081 0.00092542118629 -0.00044807315671 0.00011674326845 0.00094439606026
          -1.2212453271e-15 -2.3984630948e-09 0.00094723422885 0.00044807315671 -0.00011674497339 0.00094439758741
          0.00090237723686 -0.00023210999658 0.00092542327029 0.001345553061 -0.0003701788534 0.00089640734641
          0.0017839330762 -0.00051857892486 0.00085585427037 0.0022284494638 -0.00066360604808 0.00080530991673
          0.0026820537603 -0.0008120919163 0.0007397347442 0.0031340650698 -0.00095305464101 0.00066991423342
          0.0035848788922 -0.0010735997969 0.00058821999813 0.0039831968805 -0.0011261612494 0.00053753259163
          0.0043277150743 -0.0010664091149 0.00048092062798 0.0046264364162 -0.001166367608 0.00043579745916
          0.0048667606997 -0.0010199172952 0.00022757942193 -0.0049546077178 0.0012734823233 0.00033939655382
          -0.0047117499968 0.0010935216049 0.00043668725119 -0.0044138390928 0.001210489315 0.00043103520347
          -0.0040688672148 0.0011419837127 0.00053000090274 -0.0036660672632 0.0010997881648 0.00058551649319
          -0.0032062364235 0.00097658419775 0.00067006729379 -0.0027445698351 0.00082428406193 0.00073544749638
          -0.0022868319606 0.00066947194493 0.0007986460212 -0.0018300486322 0.00052125938409 0.00084879251627
          -0.0013725776577 0.00037233050008 0.00089146858663 -0.00092580055518 0.00023737357629 0.0009300506543
          -0.00045999498747 0.00011876886287 0.00095089713798 -8.881784197e-16 3.9651155692e-09 0.000958479411
          0.00045999498747 -0.00011877348429 0.00095089693777 0.00092580055518 -0.00023736743556 0.00093005260758
          0.0013725776577 -0.00037232489379 0.00089146807656 0.0018300486322 -0.00052126154388 0.00084879145954
          0.0022868319606 -0.00066947251388 0.00079864443306 0.0027445698351 -0.00082428090268 0.00073544507322
          0.0032062364235 -0.0009765807526 0.00067006401637 0.0036660672632 -0.0010997876678 0.0005855135091
          0.0040688672148 -0.001141984261 0.00052999681971 0.0044138390928 -0.0012104904444 0.00043103180153
          0.0047117499968 -0.0010935241738 0.00043668399033 0.0049546077178 -0.0012734838945 0.00033939403972
          -0.005044352294 0.0013424594504 0.00023486197961 -0.0048026334311 0.0011615285267 0.00041780952611
          -0.0044956578669 0.0011036292889 0.00044862716095 -0.0041448545654 0.001176850502 0.00050860998512
          -0.0037338621874 0.0011214499231 0.0005731769644 -0.0032686511999 0.00098505408374 0.00065542608329
          -0.0028016949723 0.0008321706972 0.00072098158536 -0.0023353620702 0.00067673364572 0.00078707064664
          -0.0018711475082 0.00053501431865 0.00084555760125 -0.0014050597947 0.00038712822353 0.00088649259691
          -0.0009455401422 0.00024727151576 0.00092943018755 -0.00046669297085 0.00012557027864 0.00095146116122
          -7.7715611724e-16 5.3421531643e-09 0.00095955041304 0.00046669297085 -0.0001255638218 0.00095146140169
          0.0009455401422 -0.00024726554129 0.00092943193887 0.0014050597947 -0.00038712080994 0.00088649213625
          0.0018711475082 -0.00053501193348 0.00084555685705 0.0023353620702 -0.00067673188214 0.00078706964271
          0.0028016949723 -0.00083217804302 0.0007209790764 0.0032686511999 -0.00098505226699 0.00065542110247
          0.0037338621874 -0.0011214542501 0.00057317274551 0.0041448545654 -0.0011768538561 0.00050860448307
          0.0044956578669 -0.0011036284962 0.000448623028 0.0048026334311 -0.0011615251426 0.00041780690862
          0.005044352294 -0.0013424529117 0.00023486072145 -0.0051543042369 0.0012350669948 0.00030139361157
          -0.0048897022859 0.0010936972482 0.00038650146202 -0.004589577158 0.001240717762 0.00046424825835
          -0.004226265271 0.001181375509 0.00048747170572 -0.0038081102311 0.0011412418348 0.00055696231726
          -0.0033407371166 0.00100000583 0.00064167408215 -0.0028611370274 0.00084645971915 0.00071224836951
          -0.0023911620908 0.00069115083825 0.00078386675304 -0.0019107685092 0.00055198592767 0.00084138591592
          -0.0014317226572 0.0004071296344 0.00089116634962 -0.00096226497331 0.00025966133716 0.0009400763642
          -0.00047961352151 0.00012847334588 0.00096506256619 -2.2204460493e-16 -1.7222491211e-09 0.0009702283207
          0.00047961352151 -0.00012846902929 0.00096506413335 0.00096226497331 -0.00025965994947 0.00094007805657
          0.0014317226572 -0.00040712595544 0.00089116698796 0.0019107685092 -0.00055199045583 0.00084138660575
          0.0023911620908 -0.00069115752525 0.0007838670598 0.0028611370274 -0.00084646470333 0.00071224930778
          0.0033407371166 -0.0010000098695 0.00064167408215 0.0038081102311 -0.0011412438626 0.00055696066447
          0.004226265271 -0.0011813747396 0.00048747170572 0.004589577158 -0.0012407145101 0.00046424825835
          0.0048897022859 -0.0010936886643 0.00038650146202 0.0051543042369 -0.001235055379 0.00030139361157
          -0.0052732131767 0.0013100389974 0.00015869045137 -0.0049991734838 0.0011587004626 0.0003407950181
          -0.0046924189582 0.0012840901202 0.00038761750737 -0.0043178017927 0.0012108646573 0.00049404962437
          -0.0038876119368 0.0011587283947 0.00054291976196 -0.0034075159135 0.0010161975989 0.00062823276276
          -0.0029195384493 0.00087108041652 0.00070342676476 -0.0024355461687 0.00072247545058 0.00078043435472
          -0.0019445579611 0.00058681472494 0.00084813484384 -0.0014631696539 0.00043784588841 0.00088966807718
          -0.00098065276352 0.00028063690938 0.00094073626227 -0.00048623449385 0.00013863181607 0.0009687518336
          -4.4408920985e-16 5.2773438952e-09 0.00097571138113 0.00048623449385 -0.00013861270098 0.00096874977799
          0.00098065276352 -0.0002806449687 0.00094073601634 0.0014631696539 -0.00043783991467 0.00088966646566
          0.0019445579611 -0.00058680961123 0.00084813398499 0.0024355461687 -0.0007224789864 0.00078043570822
          0.0029195384493 -0.00087108644765 0.00070342804751 0.0034075159135 -0.0010162024068 0.00062823418286
          0.0038876119368 -0.0011587344683 0.00054291799354 0.0043178017927 -0.0012108622729 0.0004940509776
          0.0046924189582 -0.0012840852304 0.00038761878813 0.0049991734838 -0.0011586948708 0.00034079665596
          0.0052732131767 -0.0013100324587 0.00015869170953 -0.0053959647131 0.0012090195143 0.0001779648406
          -0.0051190887074 0.0010900382688 0.00027949049735 -0.0048005968663 0.0012550778137 0.00039005121596
          -0.0044144974214 0.0012002648869 0.00047451451436 -0.0039644183294 0.0011696626376 0.0005343869025
          -0.0034683551023 0.0010275288115 0.00062311498394 -0.002968070201 0.00089256849744 0.00070439078556
          -0.0024738439906 0.00074591442589 0.00077854261316 -0.0019789860132 0.00060958799095 0.00084213663094
          -0.0014928369883 0.00046189348158 0.00088444118292 -0.00099832491639 0.00030222274998 0.00093727356008
          -0.00049995498309 0.00014340274967 0.0009631842981 -2.2204460493e-16 -2.2123144428e-09 0.00096889731426
          0.00049995498309 -0.00014339508411 0.00096318105302 0.00099832491639 -0.00030222354991 0.00093727029407
          0.0014928369883 -0.00046189331557 0.0008844382346 0.0019789860132 -0.00060958965582 0.00084213412267
          0.0024738439906 -0.00074591776428 0.00077854168155 0.002968070201 -0.0008925763172 0.00070438918663
          0.0034683551023 -0.0010275381137 0.00062311370835 0.0039644183294 -0.0011696643842 0.00053438569178
          0.0044144974214 -0.0012002618024 0.00047451414062 0.0048005968663 -0.0012550725873 0.00039005129936
          0.0051190887074 -0.0010900334923 0.00027949131354 0.0053959647131 -0.0012090179432 0.00017796642979
          -0.0055153832399 0.0012917265687 0.00018017609476 -0.0052251118818 0.0011553799713 0.00034568246981
          -0.0048940631458 0.0012931324853 0.00038812395691 -0.0044907050107 0.0012242980776 0.00048881523248
          -0.0040399358404 0.0011863952384 0.000538003251 -0.0035311215242 0.0010527052179 0.00062989857411
          -0.0030287812918 0.00091776789443 0.00070901675817 -0.0025213383935 0.00077057758676 0.00078208151385
          -0.0020236287005 0.00063000244514 0.00084439316746 -0.0015165751192 0.00048198966203 0.00088308270142
          -0.0010084864917 0.0003184079687 0.00092839724375 -0.00050544027727 0.00015442795065 0.00095560964208
          -5.5511151231e-16 -2.5884013821e-09 0.0009615017983 0.00050544027727 -0.00015444361845 0.00095560916861
          0.0010084864917 -0.0003184022324 0.0009283892257 0.0015165751192 -0.00048199124667 0.00088307675036
          0.0020236287005 -0.0006300026753 0.00084438610725 0.0025213383935 -0.00077058081325 0.0007820768852
          0.0030287812918 -0.00091776885964 0.00070901406066 0.0035311215242 -0.0010527126226 0.00062989636654
          0.0040399358404 -0.0011863955752 0.00053800072757 0.0044907050107 -0.0012242949755 0.00048881446721
          0.0048940631458 -0.0012931275968 0.00038812342011 0.0052251118818 -0.001155375089 0.00034568211097
          0.0055153832399 -0.0012917263087 0.00018017586464 -0.005639412004 0.001192577527 0.00015410634479
          -0.005332998355 0.0010883881736 0.00040221311586 -0.0049870215902 0.0012681426357 0.00038509145033
          -0.0045756559257 0.0012250995568 0.0004789802394 -0.0041083312851 0.0011991594968 0.00054564087367
          -0.0035983540229 0.0010702321173 0.00063362187803 -0.0030878250068 0.00093935519422 0.00071401486735
          -0.0025703926558 0.00079059411572 0.00078339578683 -0.002055859186 0.000646245385 0.00084157404918
          -0.001540550632 0.00048887027024 0.00088454223724 -0.0010174676721 0.00032378089559 0.00092548501224
          -0.00050676955008 0.00015542479136 0.00094532418821 -5.5511151231e-16 7.2425754283e-10 0.00094764303606
          0.00050676955008 -0.00015541219482 0.00094532083907 0.0010174676721 -0.00032379618874 0.00092547999182
          0.001540550632 -0.00048887218595 0.00088453919004 0.002055859186 -0.00064623722545 0.00084156436755
          0.0025703926558 -0.00079059341141 0.00078338967231 0.0030878250068 -0.0009393565477 0.00071400918142
          0.0035983540229 -0.0010702326096 0.00063361655996 0.0041083312851 -0.0011991541975 0.00054563746597
          0.0045756559257 -0.0012250981938 0.00047897707562 0.0049870215902 -0.0012681353166 0.00038508881836
          0.005332998355 -0.0010883828993 0.00040221094635 0.005639412004 -0.0011925758052 0.00015410452327
          -0.0057494355675 0.0012720769762 0.00029924869189 -0.0054358067797 0.0011610041705 0.00030305131578
          -0.005077150974 0.0013236599924 0.00045690105319 -0.0046495591934 0.0012535469557 0.00049368644006
          -0.0041737232196 0.0012192440268 0.00055509471335 -0.0036606891545 0.0010885431082 0.00064351891002
          -0.003142489119 0.00095873787906 0.00071675145919 -0.0026171280221 0.00080697025149 0.00078864432731
          -0.0020946900323 0.00065638170385 0.00084653450103 -0.0015708907995 0.00049150584524 0.00088420875355
          -0.0010381607715 0.00032767305952 0.00091903396755 -0.00052120880586 0.00016042277253 0.0009336157369
          -8.881784197e-16 -1.9988263267e-09 0.00093773089532 0.00052120880586 -0.00016042161063 0.00093361449273
          0.0010381607715 -0.00032768093036 0.00091902907762 0.0015708907995 -0.00049151094648 0.00088420279788
          0.0020946900323 -0.00065638137186 0.00084652636167 0.0026171280221 -0.00080697532757 0.0007886373796
          0.003142489119 -0.00095873919872 0.00071674564548 0.0036606891545 -0.001088540808 0.0006435137927
          0.0041737232196 -0.0012192398431 0.00055509392691 0.0046495591934 -0.0012535431018 0.00049368388757
          0.005077150974 -0.001323651514 0.00045689872484 0.0054358067797 -0.00116099081 0.00030304877258
          0.0057494355675 -0.0012720637893 0.00029924663803 -0.0058337313711 0.0011729980567 0.00024820531747
          -0.005519414156 0.0013862397161 0.00034220174999 -0.0051628011323 0.0013052366393 0.00044464453315
          -0.004730000038 0.0012621206382 0.00050727874664 -0.0042470297765 0.0012348316385 0.00055832809734
          -0.0037315624028 0.0011090318132 0.00064824586983 -0.0032014019488 0.00097345603896 0.000726994613
          -0.0026656526374 0.00081464761208 0.00079401457146 -0.0021366169552 0.00066083456579 0.00084759015356
          -0.0016042463406 0.00049087043448 0.0008847347905 -0.0010634917382 0.00031725002942 0.00091993593895
          -0.0005332364753 0.00015989634411 0.0009330828177 -7.7715611724e-16 -2.5477112642e-09 0.0009370368317
          0.00053323647529 -0.00015991352174 0.00093308023444 0.0010634917382 -0.00031725867734 0.00091993512101
          0.0016042463406 -0.00049087207049 0.00088473369952 0.0021366169552 -0.00066083731245 0.00084758714943
          0.0026656526374 -0.00081465242187 0.00079401297365 0.0032014019488 -0.00097345560268 0.00072699375836
          0.0037315624028 -0.0011090252084 0.00064824592036 0.0042470297765 -0.0012348206577 0.00055832901372
          0.004730000038 -0.0012621174844 0.00050728031964 0.0051628011323 -0.0013052284976 0.00044464549734
          0.005519414156 -0.0013862255404 0.00034220183914 0.0058337313711 -0.0011729799022 0.00024820452399
          -0.0059256873089 0.0012433335449 0.00017561419392 -0.0056147427187 0.0011745864654 0.00036170157755
          -0.0052559473159 0.0013623217319 0.00041921566905 -0.0048222431233 0.0012978067138 0.00048928271707
          -0.0043303899393 0.001260405096 0.00056245606948 -0.0037992685321 0.0011274775741 0.00065057139912
          -0.0032591853823 0.00098015342801 0.00073019922075 -0.0027117985188 0.00082265392198 0.00079692226459
          -0.002172447373 0.00066340881522 0.00085044255317 -0.0016233405607 0.00048792998275 0.00088850329325
          -0.0010730973407 0.00031459288432 0.00092216344226 -0.00054421224026 0.00015629775364 0.00094280330057
          -8.881784197e-16 -2.7989986995e-09 0.00094820697709 0.00054421224026 -0.00015630710911 0.00094280188176
          0.0010730973407 -0.00031460045136 0.00092216757265 0.0016233405607 -0.00048793428422 0.00088850339395
          0.002172447373 -0.00066340522915 0.00085044406824 0.0027117985188 -0.00082265646073 0.00079692393301
          0.0032591853823 -0.0009801546988 0.00073020147124 0.0037992685321 -0.0011274687211 0.00065057343309
          0.0043303899393 -0.0012603998965 0.00056245840641 0.0048222431233 -0.0012978000111 0.00048928457172
          0.0052559473159 -0.0013623140009 0.00041921741172 0.0056147427187 -0.0011745763856 0.00036170361608
          0.0059256873089 -0.0012433204674 0.00017561624557 -0.0060352644539 0.0015011618147 0.0002576434221
          -0.0057195095452 0.001384135678 0.00036279179727 -0.0053586590733 0.0013375908709 0.00045986864093
          -0.0049136158428 0.0013078888902 0.00048740419425 -0.0044194903554 0.0012867049904 0.0005657977436
          -0.003874039921 0.0011487790728 0.00065392169455 -0.0033207693746 0.00099451929123 0.00073562574393
          -0.0027609012115 0.00082949952017 0.00080314830435 -0.0022094096375 0.00066358674874 0.00085577628958
          -0.0016519370333 0.00049087013486 0.00089788131051 -0.0010918232553 0.00032110042866 0.00092538279517
          -0.00054522961877 0.00016285970837 0.000953284417 -5.5511151231e-16 -3.7650699225e-09 0.00095916395583
          0.00054522961877 -0.00016286362399 0.00095328492984 0.0010918232553 -0.0003211103776 0.00092538903866
          0.0016519370333 -0.00049087601758 0.00089788286696 0.0022094096375 -0.00066357613291 0.00085578302262
          0.0027609012115 -0.00082949870813 0.00080315182221 0.0033207693746 -0.00099451307565 0.00073563018654
          0.003874039921 -0.0011487740588 0.00065392741784 0.0044194903554 -0.0012867004031 0.00056580477468
          0.0049136158428 -0.0013078874207 0.00048740932256 0.0053586590732 -0.0013375872822 0.00045987285728
          0.0057195095452 -0.0013841279094 0.00036279523096 0.0060352644539 -0.0015011551665 0.00025764626945
          -0.0061626472516 0.001542308066 0.00032357503953 -0.0058333541513 0.001429194907 0.00034842609954
          -0.0054666017986 0.0013755981136 0.00041545442367 -0.0050134888891 0.0013399416728 0.00049091108976
          -0.0045007150242 0.0013091069736 0.00056350986135 -0.0039358313018 0.0011585115779 0.00065282642858
          -0.0033744208872 0.0010001744527 0.00073448468474 -0.0028063512984 0.00083874643897 0.00080101110461
          -0.0022419603066 0.00067011485166 0.00085943502074 -0.0016772907123 0.00049924042156 0.00090376135155
          -0.001109676461 0.00032976488983 0.00093626830662 -0.00055845333789 0.00016471518465 0.00096049903996
          -7.7715611724e-16 -1.0473207857e-09 0.00097254967433 0.00055845333789 -0.00016470347417 0.00096049991839
          0.001109676461 -0.00032978325697 0.00093627557369 0.0016772907123 -0.00049924519707 0.00090376794223
          0.0022419603066 -0.00067009915289 0.00085944366616 0.0028063512984 -0.00083874305283 0.00080101778542
          0.0033744208872 -0.0010001654705 0.000734491587 0.0039358313018 -0.0011585094352 0.00065283441195
          0.0045007150242 -0.0013091006953 0.00056351973135 0.0050134888891 -0.0013399413083 0.00049091805492
          0.0054666017986 -0.0013755988622 0.0004154596791 0.0058333541513 -0.0014291988971 0.00034842958054
          0.0061626472516 -0.0015423144542 0.00032357653003 -0.0062824308145 0.0013754197605 0.00016576369386
          -0.0059572284715 0.0013191864209 0.00030319242953 -0.0055753411528 0.001330925917 0.0004377578233
          -0.0051133219367 0.0014049478742 0.00048728217275 -0.0045884088435 0.0013239316943 0.00056517558734
          -0.0040126244133 0.0011704957758 0.0006560504812 -0.0034278719308 0.0010096508296 0.00073825015204
          -0.0028461555533 0.00084883052377 0.00080722294415 -0.0022721850571 0.00068240365194 0.00086684724793
          -0.0017052014236 0.00051138472721 0.00091216225695 -0.0011305775079 0.00033525072377 0.00094159699996
          -0.00056818557072 0.00016603918799 0.00096442194364 -7.7715611724e-16 2.3865922572e-09 0.0009717016978
          0.00056818557072 -0.0001660375424 0.00096442534227 0.0011305775079 -0.00033524346423 0.00094160139104
          0.0017052014236 -0.00051137680252 0.000912166378 0.0022721850571 -0.00068238925315 0.00086685478875
          0.0028461555533 -0.00084882854277 0.00080722646782 0.0034278719308 -0.0010096404642 0.00073825473662
          0.0040126244133 -0.0011704856004 0.00065605746528 0.0045884088435 -0.0013239212221 0.00056518427482
          0.0051133219367 -0.001404954382 0.0004872878521 0.0055753411528 -0.001330933266 0.00043776174909
          0.0059572284715 -0.0013191972124 0.00030319412685 0.0062824308145 -0.0013754313763 0.0001657641541
          -0.0064001337764 0.0013566049072 0.0001593900705 -0.0060589727409 0.0013192198308 0.00038578465398
          -0.0056694625086 0.001351091157 0.00044487770685 -0.005200168819 0.0014307641056 0.00050796655075
          -0.0046569747111 0.0013463001212 0.00056395025343 -0.0040652530064 0.0011851956452 0.00065904536685
          -0.0034711488175 0.0010184237447 0.00074256596404 -0.0028821214279 0.00086530270311 0.00080670217073
          -0.002303160688 0.00069702105226 0.00086168185013 -0.0017325975522 0.0005291813834 0.00090792062626
          -0.0011554737476 0.00034670574713 0.0009370225081 -0.00058182067012 0.00017066518686 0.0009636284615
          -7.7715611724e-16 -3.5629413864e-09 0.00097342521641 0.00058182067012 -0.0001706698214 0.00096363018206
          0.0011554737476 -0.00034669204691 0.00093702659217 0.0017325975522 -0.00052918914739 0.00090792324544
          0.002303160688 -0.000697021147 0.00086168510566 0.0028821214279 -0.00086530239372 0.00080670394574
          0.0034711488175 -0.0010184183573 0.00074256709934 0.0040652530064 -0.0011851857765 0.00065904527847
          0.0046569747111 -0.0013462967713 0.00056395259262 0.005200168819 -0.0014307677989 0.00050796696858
          0.0056694625086 -0.0013510983497 0.00044487801492 0.0060589727409 -0.0013192299543 0.00038578534465
          0.0064001337764 -0.0013566147388 0.0001593899696 -0.0064974192696 0.0014791741064 0.00013540372098
          -0.0061489421032 0.0014437023985 0.00030839600988 -0.0057464029119 0.0014472678867 0.00044656119958
          -0.0052746805371 0.0014251946227 0.00049244164476 -0.0047219865971 0.001377070585 0.00055838883884
          -0.0041142661959 0.0012054882291 0.00065629886217 -0.003514695082 0.0010386077276 0.00073726530061
          -0.0029235488146 0.0008864942244 0.00080300692832 -0.0023371107839 0.00071988835254 0.00085617601713
          -0.0017526618459 0.00055184630506 0.00089699551112 -0.0011743271052 0.00036728396233 0.00093372980967
          -0.00059079721199 0.00017516234192 0.00096121665587 -1.1102230246e-15 5.1722928163e-09 0.00097111570216
          0.00059079721199 -0.00017515676527 0.00096121867125 0.0011743271052 -0.00036730307847 0.00093372960388
          0.0017526618459 -0.00055185623576 0.00089699686658 0.0023371107839 -0.00071988887099 0.00085617866216
          0.0029235488146 -0.00088649087422 0.0008030068663 0.003514695082 -0.0010386032606 0.00073726466758
          0.0041142661959 -0.0012054886342 0.00065629752589 0.0047219865971 -0.0013770654507 0.00055838727168
          0.0052746805371 -0.0014251985316 0.00049244046166 0.0057464029119 -0.0014472762715 0.00044656035471
          0.0061489421032 -0.0014437153208 0.00030839496037 0.0064974192696 -0.0014791880676 0.00013540359177
          -0.0065872875774 0.0013890368894 0.00028999697298 -0.0062390371461 0.0013854321285 0.00037256216902
          -0.0058311298757 0.0014261160599 0.00045063429385 -0.0053509583383 0.0014965550016 0.00048663177472
          -0.0047944411806 0.0014023916534 0.00056592474552 -0.0041838840009 0.0012336094408 0.0006578691534
          -0.0035810776373 0.001059285089 0.00074469679017 -0.0029807420173 0.00090101665723 0.00080278733665
          -0.002385448505 0.00074015747357 0.00085136585476 -0.0017902816507 0.00057054833807 0.00089288021136
          -0.0011974438195 0.00038544727359 0.00092552584355 -0.00059795269133 0.00019416914495 0.00095217760129
          -8.881784197e-16 -1.6298909999e-09 0.00096593382307 0.00059795269133 -0.0001941810385 0.00095217711938
          0.0011974438195 -0.00038543203151 0.00092552663536 0.0017902816507 -0.000570554798 0.00089288043087
          0.002385448505 -0.00074016326589 0.00085136628157 0.0029807420173 -0.0009010165148 0.00080278583934
          0.0035810776373 -0.0010592828776 0.00074469396196 0.0041838840009 -0.0012336028492 0.00065786501384
          0.0047944411806 -0.0014023903773 0.00056592097312 0.0053509583383 -0.0014965591474 0.00048662747193
          0.0058311298757 -0.0014261242212 0.00045063120848 0.0062390371461 -0.0013854418311 0.00037256045686
          0.0065872875774 -0.001389044225 0.00028999651052 -0.0066824290265 0.0014558339126 0.00023129435186
          -0.0063256057718 0.0014598832283 0.0002671730977 -0.005907294323 0.001493294191 0.00044246300184
          -0.005420485093 0.0014898108375 0.00050148504985 -0.0048646758859 0.0014414489348 0.00056495007755
          -0.0042494506215 0.0012728958784 0.00065467254453 -0.0036512925687 0.001082046981 0.00074157839779
          -0.0030480105124 0.00091219993662 0.00080243541524 -0.0024391176233 0.00074191576821 0.00085378145199
          -0.0018275005836 0.00058018113009 0.00089101371291 -0.0012189504801 0.00038736976273 0.00092057908316
          -0.00060542673082 0.00020047022039 0.00094265339904 -1.1102230246e-15 1.8235810639e-09 0.00095031870143
          0.00060542673082 -0.00020046408748 0.00094265236753 0.0012189504801 -0.00038737875789 0.00092057568741
          0.0018275005836 -0.00058018074711 0.00089101404131 0.0024391176233 -0.00074191348709 0.00085378253889
          0.0030480105124 -0.00091219979907 0.00080243525617 0.0036512925687 -0.0010820410672 0.00074157775835
          0.0042494506215 -0.0012728902357 0.00065467181043 0.0048646758859 -0.0014414432649 0.00056494738594
          0.005420485093 -0.0014898111304 0.00050148411444 0.005907294323 -0.0014933009916 0.00044246202914
          0.0063256057718 -0.0014598900917 0.00026717215052 0.0066824290265 -0.001455841075 0.00023129299279
          -0.0067736545478 0.0016474451912 0.00016407290662 -0.0064001791942 0.0016306876569 0.00031232109939
          -0.0059812164658 0.0016059533992 0.00043807457755 -0.0054930100824 0.001554449704 0.00048844038356
          -0.0049365643603 0.0014788596016 0.00055952337328 -0.0043217706458 0.0013028049769 0.00065477702796
          -0.003712263561 0.0011109932025 0.00073752859073 -0.0031036601993 0.0009314995146 0.00080242657646
          -0.0024830966602 0.00075617905073 0.00085279508503 -0.0018571626239 0.00058102153852 0.00089100997929
          -0.0012393283981 0.00039945647945 0.00091742245761 -0.00061919148832 0.00020378063892 0.00093514963525
          -7.7715611724e-16 -7.3932338029e-10 0.00093836512373 0.00061919148831 -0.00020377204679 0.0009351518092
          0.0012393283981 -0.00039945369501 0.00091742174417 0.0018571626239 -0.00058103115789 0.00089101174286
          0.0024830966602 -0.00075618906257 0.00085279664221 0.0031036601993 -0.00093150156765 0.00080242803903
          0.003712263561 -0.0011109948096 0.00073752970461 0.0043217706458 -0.0013028001932 0.00065477774703
          0.0049365643603 -0.0014788618282 0.00055951993424 0.0054930100824 -0.0015544504273 0.0004884391843
          0.0059812164658 -0.0016059543283 0.00043807352996 0.0064001791942 -0.0016306901637 0.00031232019405
          0.0067736545478 -0.0016474448276 0.00016407211092 -0.0068745090542 0.0016213278608 0.00028256515074
          -0.0064961577335 0.0016310915006 0.0003453987211 -0.0060731541699 0.0016293996061 0.0004340135529
          -0.0055754647227 0.0015850260576 0.00050728199862 -0.0050209158079 0.0015112008693 0.00056474065564
          -0.0043942249031 0.0013262565103 0.00065861453252 -0.0037741502238 0.0011331288596 0.0007381400197
          -0.0031483624296 0.00094318213871 0.00080224676979 -0.0025128481674 0.00076006268432 0.00085149094448
          -0.0018798888888 0.0005808932831 0.00088876778865 -0.0012509454469 0.00039946687031 0.00091437331921
          -0.00062432244895 0.00020016048917 0.00092879960975 -7.7715611724e-16 -8.9308960227e-10 0.00093017788418
          0.00062432244895 -0.00020016298826 0.00092880131863 0.0012509454469 -0.00039944816823 0.00091437058885
          0.0018798888888 -0.00058089958398 0.00088876873775 0.0025128481674 -0.00076007457347 0.00085149310149
          0.0031483624296 -0.00094317975913 0.00080224703761 0.0037741502238 -0.0011331321216 0.00073813890958
          0.0043942249031 -0.0013262561718 0.00065861133533 0.0050209158079 -0.0015111995264 0.00056473682875
          0.0055754647227 -0.0015850261126 0.00050727682068 0.0060731541699 -0.0016293995125 0.00043401008903
          0.0064961577335 -0.0016310910624 0.00034539742446 0.0068745090542 -0.0016213286351 0.00028256548398
          -0.0069787252648 0.0017490092331 0.00017871162824 -0.0066001479836 0.0014479242666 0.00035977780347
          -0.0061717833388 0.0015566630317 0.00040929253982 -0.0056746111789 0.0015864924546 0.00051295357733
          -0.0051085728379 0.0015446216018 0.00056276067187 -0.004480787754 0.0013515422209 0.00065466629689
          -0.0038443289696 0.0011458054929 0.00073744932326 -0.0032034337802 0.00094995497391 0.00080421543647
          -0.0025528981833 0.0007590125865 0.00085854063995 -0.0019034470603 0.00058095333628 0.000896491276
          -0.0012645668449 0.00038588851131 0.00092214399749 -0.00062915185513 0.00019196118812 0.00093486829766
          -8.881784197e-16 -3.2528868488e-11 0.00094233399707 0.00062915185513 -0.0001919640677 0.00093486670462
          0.0012645668449 -0.0003858863091 0.00092214096032 0.0019034470603 -0.00058095657492 0.00089648999186
          0.0025528981833 -0.00075902309153 0.00085854218024 0.0032034337802 -0.0009499617484 0.00080421483938
          0.0038443289696 -0.0011457993083 0.00073744873514 0.004480787754 -0.0013515419716 0.00065466539653
          0.0051085728379 -0.001544622878 0.00056275840503 0.0056746111789 -0.0015864918514 0.00051295239424
          0.0061717833388 -0.0015566619959 0.00040929169496 0.0066001479836 -0.0014479221359 0.00035977675396
          0.0069787252648 -0.0017490068877 0.00017871149903 -0.0070796320519 0.0016110157169 0.00024698755956
          -0.0067044290461 0.0016575098087 0.00036489868787 -0.0062654307679 0.0016943555134 0.00045978969107
          -0.0057654863353 0.0016599423711 0.00048882790393 -0.0051866777164 0.001572321226 0.00055714373902
          -0.0045451095609 0.001374698316 0.00064730820459 -0.0039038653 0.0011746203334 0.00073451797088
          -0.0032536469907 0.00097184587264 0.00080520209217 -0.002590080995 0.00077571704852 0.00085745998142
          -0.0019274707523 0.00058594500452 0.00089483966065 -0.0012823851819 0.00039092892551 0.00092579982525
          -0.0006369608243 0.00019061608359 0.0009374625036 -7.7715611724e-16 7.4166850439e-10 0.00094307689032
          0.0006369608243 -0.00019061509206 0.00093746089243 0.0012823851819 -0.00039092010663 0.00092579890369
          0.0019274707523 -0.00058594834201 0.00089483852206 0.002590080995 -0.00077573032304 0.00085745959643
          0.0032536469907 -0.00097184853619 0.000805202806 0.0039038653 -0.0011746215361 0.00073451758634
          0.0045451095609 -0.0013747037279 0.00064730734354 0.0051866777164 -0.0015723238064 0.00055714278251
          0.0057654863353 -0.0016599416104 0.00048882712249 0.0062654307679 -0.0016943543398 0.00045978895155
          0.0067044290461 -0.0016575078459 0.0003648984732 0.0070796320519 -0.0016110139951 0.00024698666296
          -0.0071850945978 0.0016236324131 0.00029790418855 -0.0068142408872 0.0016805982931 0.00035251682168
          -0.0063691519847 0.0017211157134 0.00042800399627 -0.0058570923516 0.0016807717116 0.00049941591278
          -0.0052674643724 0.0015883384859 0.00056064543379 -0.0046159140763 0.0013909263013 0.00065270924929
          -0.0039577483099 0.0011863573006 0.00073903986979 -0.0032965349965 0.00098855067916 0.00080952004104
          -0.0026360295594 0.00078909556787 0.0008667925821 -0.0019640454473 0.00059367916795 0.00090106231824
          -0.0013087925563 0.00039564433461 0.00092254672443 -0.00065229616402 0.00019451342297 0.00093149313076
          -5.5511151231e-16 -4.631837025e-09 0.00093547341722 0.00065229616402 -0.00019452972859 0.00093149170105
          0.0013087925563 -0.00039562359174 0.00092254693031 0.0019640454473 -0.00059368102088 0.00090106127664
          0.0026360295594 -0.0007890995752 0.00086679244956 0.0032965349965 -0.00098855527703 0.00080951946447
          0.0039577483099 -0.0011863523388 0.00073904069577 0.0046159140763 -0.00139092875 0.00065271007209
          0.0052674643724 -0.0015883443436 0.00056064607335 0.0058570923516 -0.0016807695397 0.0004994175532
          0.0063691519847 -0.0017211108677 0.00042800491157 0.0068142408872 -0.0016805920953 0.000352516765
          0.0071850945978 -0.001623626025 0.00029790362297 -0.0072988313565 0.0017862280571 0.00031136164494
          -0.0069134160923 0.0015206675122 0.00030995588 -0.0064625962996 0.0016361486079 0.00045686121502
          -0.0059389015806 0.0016537192313 0.00050068655228 -0.0053372637418 0.0015993887641 0.00055698725768
          -0.0046646911954 0.0014015621567 0.00064873069778 -0.0040092010974 0.0011899837619 0.00073122590199
          -0.0033417139129 0.0010025936996 0.00080522160421 -0.0026754408001 0.00080621820576 0.00086304053827
          -0.0020081668167 0.00060880654085 0.0008962084327 -0.0013380976517 0.00040479758988 0.00092292652006
          -0.00066698364915 0.00020408396082 0.00093120050935 -7.7715611724e-16 -5.4816375883e-09 0.00093257430693
          0.00066698364914 -0.00020409083975 0.00093120093622 0.0013380976517 -0.00040480032344 0.00092292525212
          0.0020081668167 -0.00060880745958 0.00089620647992 0.0026754408001 -0.00080621704693 0.00086303936889
          0.0033417139129 -0.0010025945958 0.00080522131322 0.0040092010974 -0.0011899814962 0.0007312262908
          0.0046646911954 -0.0014015637424 0.00064873141242 0.0053372637418 -0.0015993933398 0.00055698953545
          0.0059389015806 -0.0016537183276 0.00050068698628 0.0064625962996 -0.0016361458107 0.00045686172581
          0.0069134160923 -0.0015206624182 0.0003099564265 0.0072988313565 -0.001786221669 0.00031136221052
          -0.0073577569817 0.0016895737526 0.00033519450965 -0.0069843460188 0.0017509065303 0.00042112833943
          -0.0065376946484 0.0016128198475 0.00049795894904 -0.006004886939 0.0017153691539 0.00051616486213
          -0.0054024244047 0.0016132946009 0.00057956264009 -0.0047264283124 0.0014159564773 0.00066809842725
          -0.004059659171 0.0012065189275 0.00075353162445 -0.0033908617778 0.0010169104428 0.00082532278416
          -0.0027124012174 0.00082307841652 0.00088289724026 -0.0020363260916 0.00061774806046 0.00092450903251
          -0.0013542009653 0.00041157564334 0.00094769781418 -0.00067750687975 0.00021040676992 0.00095443086942
          -6.6613381478e-16 -5.5354897333e-09 0.00095682600166 0.00067750687974 -0.00021040664096 0.00095443155067
          0.0013542009653 -0.00041158973128 0.00094769718558 0.0020363260916 -0.00061774136125 0.00092450716255
          0.0027124012174 -0.00082307183395 0.00088289365208 0.0033908617778 -0.0010169068376 0.0008253226702
          0.004059659171 -0.001206519091 0.00075353352007 0.0047264283124 -0.0014159543749 0.00066810085725
          0.0054024244047 -0.0016132918772 0.00057956770402 0.006004886939 -0.0017153670075 0.00051616795693
          0.0065376946484 -0.0016128218519 0.0004979614202 0.0069843460188 -0.0017509082401 0.00042112982619
          0.0073577569817 -0.0016895736019 0.0003351959285 -0.0073705093004 0.0017872491828 0.00045418738373
          -0.006981723312 0.0018180791752 0.00048363603276 -0.0065371337845 0.0016385081726 0.00058353226927
          -0.0060290288843 0.0016658321744 0.00065703715497 -0.005449931647 0.0016262966543 0.00070239624328
          -0.0048068760074 0.001425436097 0.00080211819732 -0.0041051153696 0.0012117196954 0.00087446325975
          -0.0034176613575 0.0010225512783 0.00094486624229 -0.0027346022966 0.00082703979759 0.0010023911867
          -0.0020571150167 0.00062378353905 0.0010530128721 -0.0013689495887 0.000418574417 0.0010637841499
          -0.00069047425181 0.00021346105521 0.0010893303643 -4.4408920985e-16 7.4473427425e-10 0.001085975781
          0.00069047425181 -0.00021344537466 0.0010893265333 0.0013689495887 -0.00041857732276 0.001063781312
          0.0020571150167 -0.00062378191472 0.0010530109943 0.0027346022966 -0.00082703415323 0.0010023945227
          0.0034176613575 -0.0010225466219 0.00094486768779 0.0041051153696 -0.0012117127555 0.00087446465215
          0.0048068760074 -0.0014254358749 0.00080212104814 0.005449931647 -0.0016262971632 0.00070240122892
          0.0060290288843 -0.0016658373209 0.00065704111558 0.0065371337845 -0.0016385118454 0.00058353536357
          0.006981723312 -0.0018180830172 0.00048363902724 0.0073705093004 -0.0017872522867 0.00045418893439
          -0.0073989346072 0.002056816125 0.00052007784513 -0.0070836332748 0.0017537561315 0.00069944517607
          -0.0065849035178 0.0017613682662 0.00069436103408 -0.0061994876748 0.0017151172032 0.00078472368179
          -0.0055939626686 0.0016342622702 0.00085289314055 -0.0047769386062 0.0014382639066 0.00089847299976
          -0.0041444291906 0.0012203130253 0.0010353735329 -0.0035467199751 0.0010273079324 0.0011042923977
          -0.0027926946785 0.00082996398618 0.0011640620007 -0.0020573129917 0.00062402791945 0.0011474853511
          -0.0014818475277 0.00042193606138 0.0012113006742 -0.0007451798829 0.00020880121939 0.0011947823006
          -3.3306690739e-16 -5.3168209835e-09 0.0011877728586 0.0007451798829 -0.00020880340694 0.001194786615
          0.0014818475277 -0.0004219385193 0.0012112987443 0.0020573129916 -0.00062403059205 0.0011474856869
          0.0027926946785 -0.00082995515005 0.0011640605767 0.0035467199751 -0.0010273007274 0.0011042935417
          0.0041444291906 -0.0012203092527 0.001035378007 0.0047769386062 -0.0014382628909 0.0008984803292
          0.0055939626686 -0.001634260142 0.00085290031556 0.0061994876748 -0.0017151191989 0.00078473048303
          0.0065849035178 -0.001761372937 0.00069436602407 0.0070836332748 -0.0017537639707 0.00069944826014
          0.0073989346072 -0.0020568262468 0.00052007938561 -0.007631786261 0.0021307579418 0.00072500238276
          -0.0073149481305 0.0020681141585 0.0007174598744 -0.0066891418722 0.0017913272495 0.00077769111447
          -0.0062813080427 0.0017241245626 0.00085419087104 -0.0055597179317 0.0016475836888 0.00081064468371
          -0.004833358983 0.0014478105337 0.00097287341601 -0.0041405511429 0.0012409274028 0.0010068474116
          -0.0035011474271 0.0010346485259 0.0010661688092 -0.0028969767287 0.00083963628663 0.0011320478053
          -0.0020204028491 0.00063522845572 0.0012095844012 -0.0014435500365 0.00043092762953 0.0013032151629
          -0.00086657728844 0.00021041823143 0.0012649015211 -1.1102230246e-16 3.9205285685e-09 0.0012511319815
          0.00086657728844 -0.00021042642135 0.0012648995172 0.0014435500365 -0.00043093335089 0.001303215831
          0.0020204028491 -0.00063524089482 0.0012095838963 0.0028969767287 -0.00083962516524 0.0011320473552
          0.0035011474271 -0.0010346365927 0.0010661682124 0.0041405511429 -0.0012409218591 0.001006848587
          0.004833358983 -0.0014478128012 0.00097287448121 0.0055597179317 -0.0016475834318 0.00081064845429
          0.0062813080427 -0.0017241290834 0.00085419290358 0.0066891418722 -0.0017913366671 0.00077769309194
          0.0073149481305 -0.0020681282646 0.00071746155655 0.007631786261 -0.0021307715082 0.00072500516742
          -0.0077559362137 0.0022986532778 0.00064166205261 -0.0073167861799 0.0021735560833 0.0005524551889
          -0.0068132723578 0.0020022366672 0.00052552695635 -0.0062913227167 0.0017810061645 0.00076456694571
          -0.0057661885696 0.0016646773982 0.00069875517695 -0.004896429171 0.0014682898766 0.00087723274402
          -0.0044649128301 0.0012618588736 0.00089892320839 -0.0037153971108 0.0010504387695 0.0011405980329
          -0.0030099141224 0.00084362182143 0.0012089766492 -0.0023401810083 0.0006335363017 0.0011098697455
          -0.0013018547825 0.00042640193307 0.0012324537305 -0.00064112167473 0.00020766992778 0.0011819222416
          -1.1102230246e-16 -3.5684539768e-09 0.0011671938788 0.00064112167473 -0.00020767501377 0.0011819351054
          0.0013018547825 -0.00042642225485 0.0012324317398 0.0023401810083 -0.00063354669125 0.0011098715813
          0.0030099141224 -0.00084361035102 0.0012089333679 0.0037153971108 -0.0010504302546 0.0011405965899
          0.0044649128301 -0.0012618489135 0.0008989201686 0.004896429171 -0.00146828905 0.00087722730022
          0.0057661885696 -0.0016646642488 0.00069884180647 0.0062913227167 -0.0017810131038 0.0007645629702
          0.0068132723578 -0.002002251063 0.00052552510286 0.0073167861799 -0.002173575929 0.00055245687043
          0.0077559362137 -0.0022986757374 0.00064166692303
        </DataArray>
      </PointData>
      <CellData>
      </CellData>
      <Points>
        <DataArray type="Float64" Name="Points" NumberOfComponents="3" format="ascii" RangeMin="0.64606270266" RangeMax="75.466747244">
          0.82300001383 -13.43900013 0 0.79600000381 -12.43900013 0
          0.76800000668 -11.43900013 0 0.74000000954 -10.43900013 0
          0.71299999952 -9.4390001297 0 0.68599998951 -8.4390001297 0
          0.6589999795 -7.4390001297 0 0.63300001621 -6.4390001297 0
          0.6060000062 -5.4390001297 0 0.57899999619 -4.4390001297 0
          0.5529999733 -3.4389998913 0 0.52600002289 -2.4389998913 0
          0.5 -1.4390000105 0 0.47400000691 -0.43900001049 0
          0.4469999969 0.56099998951 0 0.42100000381 1.5609999895 0
          0.3939999938 2.5610001087 0 0.36700001359 3.5610001087 0
          0.3409999907 4.5609998703 0 0.31400001049 5.5609998703 0
          0.28700000048 6.5609998703 0 0.25999999046 7.5609998703 0
          0.23199999332 8.5609998703 0 0.20399999619 9.5609998703 0
          0.17700000107 10.56099987 0 1.8229999542 -13.411000252 0
          1.7949999571 -12.411000252 0 1.7680000067 -11.411000252 0
          1.7400000095 -10.411000252 0 1.7130000591 -9.4110002518 0
          1.6859999895 -8.4110002518 0 1.6590000391 -7.4109997749 0
          1.6330000162 -6.4109997749 0 1.6059999466 -5.4109997749 0
          1.5789999962 -4.4109997749 0 1.5529999733 -3.4110000134 0
          1.5260000229 -2.4110000134 0 1.5 -1.4110000134 0
          1.4739999771 -0.41100001335 0 1.4470000267 0.58899998665 0
          1.4210000038 1.5889999866 0 1.3940000534 2.5889999866 0
          1.3669999838 3.5889999866 0 1.3409999609 4.5890002251 0
          1.3140000105 5.5890002251 0 1.2869999409 6.5890002251 0
          1.2599999905 7.5890002251 0 1.2319999933 8.5889997482 0
          1.2050000429 9.5889997482 0 1.1770000458 10.588999748 0
          2.8229999542 -13.383000374 0 2.7950000763 -12.383000374 0
          2.7679998875 -11.383000374 0 2.7400000095 -10.383000374 0
          2.7130000591 -9.3819999695 0 2.6860001087 -8.3819999695 0
          2.6589999199 -7.3819999695 0 2.6319999695 -6.3819999695 0
          2.6059999466 -5.3819999695 0 2.5789999962 -4.3819999695 0
          2.5529999733 -3.3819999695 0 2.5260000229 -2.3819999695 0
          2.5 -1.3819999695 0 2.4739999771 -0.38199999928 0
          2.4470000267 0.61799997091 0 2.4210000038 1.6180000305 0
          2.3940000534 2.6180000305 0 2.3680000305 3.6180000305 0
          2.3410000801 4.6180000305 0 2.3139998913 5.6180000305 0
          2.2869999409 6.6180000305 0 2.2599999905 7.617000103 0
          2.2320001125 8.6169996262 0 2.2049999237 9.6169996262 0
          2.1770000458 10.616999626 0 3.8229999542 -13.354999542 0
          3.7950000763 -12.354000092 0 3.7669999599 -11.354000092 0
          3.7400000095 -10.354000092 0 3.7130000591 -9.3540000916 0
          3.6860001087 -8.3540000916 0 3.6589999199 -7.3540000916 0
          3.6319999695 -6.3540000916 0 3.6059999466 -5.3540000916 0
          3.5789999962 -4.3540000916 0 3.5529999733 -3.3540000916 0
          3.5260000229 -2.3540000916 0 3.5 -1.3539999723 0
          3.4739999771 -0.35400000215 0 3.4470000267 0.64600002766 0
          3.4210000038 1.6460000277 0 3.3940000534 2.6459999084 0
          3.3680000305 3.6459999084 0 3.3410000801 4.6459999084 0
          3.3139998913 5.6459999084 0 3.2869999409 6.6459999084 0
          3.2599999905 7.6459999084 0 3.2330000401 8.6459999084 0
          3.2049999237 9.6459999084 0 3.1770000458 10.645000458 0
          4.8220000267 -13.326999664 0 4.7950000763 -12.326000214 0
          4.7670001984 -11.326000214 0 4.7399997711 -10.326000214 0
          4.7129998207 -9.3260002136 0 4.6859998703 -8.3260002136 0
          4.6589999199 -7.3260002136 0 4.6319999695 -6.3260002136 0
          4.6059999466 -5.3260002136 0 4.5789999962 -4.3260002136 0
          4.5529999733 -3.3259999752 0 4.5260000229 -2.3259999752 0
          4.5 -1.3259999752 0 4.4739999771 -0.32600000501 0
          4.4470000267 0.6740000248 0 4.4210000038 1.6740000248 0
          4.3940000534 2.6740000248 0 4.3680000305 3.6740000248 0
          4.3410000801 4.6739997864 0 4.3140001297 5.6739997864 0
          4.2870001793 6.6739997864 0 4.2600002289 7.6739997864 0
          4.2329998016 8.6739997864 0 4.2049999237 9.6739997864 0
          4.1779999733 10.673000336 0 5.8220000267 -13.298000336 0
          5.7940001488 -12.298000336 0 5.765999794 -11.298000336 0
          5.7389998436 -10.298000336 0 5.7119998932 -9.2980003357 0
          5.6849999428 -8.2980003357 0 5.6579999924 -7.2979998589 0
          5.6319999695 -6.2979998589 0 5.6050000191 -5.2969999313 0
          5.5789999962 -4.2969999313 0 5.5529999733 -3.2969999313 0
          5.5260000229 -2.2969999313 0 5.5 -1.2970000505 0
          5.4739999771 -0.29699999094 0 5.4470000267 0.70300000906 0
          5.4210000038 1.7029999495 0 5.3949999809 2.7030000687 0
          5.3680000305 3.7019999027 0 5.3420000076 4.7020001411 0
          5.3150000572 5.7020001411 0 5.2880001068 6.7020001411 0
          5.2610001564 7.7020001411 0 5.234000206 8.7019996643 0
          5.2059998512 9.7019996643 0 5.1779999733 10.701999664 0
          6.8210000992 -13.270000458 0 6.7930002213 -12.270000458 0
          6.765999794 -11.270000458 0 6.7389998436 -10.270000458 0
          6.7119998932 -9.2700004578 0 6.6849999428 -8.2700004578 0
          6.6579999924 -7.2690000534 0 6.6319999695 -6.2690000534 0
          6.6050000191 -5.2690000534 0 6.5789999962 -4.2690000534 0
          6.5520000458 -3.2690000534 0 6.5260000229 -2.2690000534 0
          6.5 -1.2690000534 0 6.4739999771 -0.2689999938 0
          6.4479999542 0.7310000062 0 6.4210000038 1.7309999466 0
          6.3949999809 2.7309999466 0 6.3680000305 3.7309999466 0
          6.3420000076 4.7309999466 0 6.3150000572 5.7300000191 0
          6.2880001068 6.7300000191 0 6.2610001564 7.7300000191 0
          6.234000206 8.7299995422 0 6.2069997787 9.7299995422 0
          6.1789999008 10.729999542 0 7.8200001717 -13.243000031 0
          7.7930002213 -12.241999626 0 7.7649998665 -11.241999626 0
          7.7379999161 -10.241999626 0 7.7109999657 -9.2419996262 0
          7.6840000153 -8.2419996262 0 7.6579999924 -7.2410001755 0
          7.631000042 -6.2410001755 0 7.6050000191 -5.2410001755 0
          7.5789999962 -4.2410001755 0 7.5520000458 -3.2409999371 0
          7.5260000229 -2.2409999371 0 7.5 -1.2410000563 0
          7.4739999771 -0.24099999666 0 7.4479999542 0.75900000334 0
          7.4210000038 1.7589999437 0 7.3949999809 2.7590000629 0
          7.368999958 3.7590000629 0 7.3420000076 4.7589998245 0
          7.3159999847 5.757999897 0 7.2890000343 6.757999897 0
          7.2620000839 7.757999897 0 7.2350001335 8.7580003738 0
          7.2069997787 9.7580003738 0 7.1799998283 10.756999969 0
          8.8190002441 -13.215000153 0 8.7919998169 -12.213999748 0
          8.763999939 -11.213999748 0 8.7370004654 -10.213999748 0
          8.7110004425 -9.2139997482 0 8.6840000153 -8.2139997482 0
          8.656999588 -7.2129998207 0 8.6309995651 -6.2129998207 0
          8.6049995422 -5.2129998207 0 8.5780000687 -4.2129998207 0
          8.5520000458 -3.2130000591 0 8.5260000229 -2.2130000591 0
          8.5 -1.2130000591 0 8.4739999771 -0.21299999952 0
          8.4479999542 0.78700000048 0 8.4219999313 1.7869999409 0
          8.3950004578 2.7869999409 0 8.3690004349 3.7869999409 0
          8.343000412 4.7870001793 0 8.3159999847 5.7859997749 0
          8.2889995575 6.7859997749 0 8.2629995346 7.7859997749 0
          8.236000061 8.7860002518 0 8.2080001831 9.7860002518 0
          8.1809997559 10.784999847 0 9.8179998398 -13.187000275 0
          9.7910003662 -12.187000275 0 9.763999939 -11.18599987 0
          9.7370004654 -10.18599987 0 9.7100000381 -9.1859998703 0
          9.6829996109 -8.1859998703 0 9.656999588 -7.1849999428 0
          9.6300001144 -6.1849999428 0 9.6040000916 -5.1849999428 0
          9.5780000687 -4.1849999428 0 9.5520000458 -3.1849999428 0
          9.5260000229 -2.1849999428 0 9.5 -1.1849999428 0
          9.4739999771 -0.18500000238 0 9.4479999542 0.81499999762 0
          9.4219999313 1.8150000572 0 9.3959999084 2.8150000572 0
          9.3699998856 3.8150000572 0 9.343000412 4.8150000572 0
          9.3170003891 5.8140001297 0 9.2899999619 6.8140001297 0
          9.2629995346 7.8140001297 0 9.236000061 8.8140001297 0
          9.2089996338 9.8129997253 0 9.1820001602 10.812999725 0
          10.817000389 -13.159000397 0 10.789999962 -12.159000397 0
          10.762999535 -11.159000397 0 10.736000061 -10.157999992 0
          10.708999634 -9.1579999924 0 10.682999611 -8.1579999924 0
          10.656000137 -7.1579999924 0 10.630000114 -6.1570000648 0
          10.604000092 -5.1570000648 0 10.578000069 -4.1570000648 0
          10.552000046 -3.1570000648 0 10.526000023 -2.1570000648 0
          10.5 -1.1569999456 0 10.473999977 -0.15700000525 0
          10.447999954 0.84299999475 0 10.421999931 1.8430000544 0
          10.395999908 2.8429999352 0 10.369999886 3.8429999352 0
          10.343999863 4.8420000076 0 10.317000389 5.8420000076 0
          10.291000366 6.8420000076 0 10.263999939 7.8420000076 0
          10.237000465 8.8409996033 0 10.210000038 9.8409996033 0
          10.182999611 10.840999603 0 11.815999985 -13.131999969 0
          11.788999557 -12.130999565 0 11.762000084 -11.130999565 0
          11.734999657 -10.130999565 0 11.708000183 -9.1300001144 0
          11.68200016 -8.1300001144 0 11.656000137 -7.1300001144 0
          11.62899971 -6.1300001144 0 11.602999687 -5.1300001144 0
          11.576999664 -4.1290001869 0 11.552000046 -3.1289999485 0
          11.526000023 -2.1289999485 0 11.5 -1.1289999485 0
          11.473999977 -0.12899999321 0 11.447999954 0.87099999189 0
          11.423000336 1.8710000515 0 11.397000313 2.8699998856 0
          11.37100029 3.8699998856 0 11.343999863 4.8699998856 0
          11.31799984 5.8699998856 0 11.291999817 6.8699998856 0
          11.265000343 7.868999958 0 11.237999916 8.8690004349 0
          11.211000443 9.8690004349 0 11.184000015 10.868000031 0
          12.81400013 -13.104000092 0 12.786999702 -12.104000092 0
          12.760000229 -11.102999687 0 12.734000206 -10.102999687 0
          12.706999779 -9.1029996872 0 12.680999756 -8.1020002365 0
          12.654999733 -7.1020002365 0 12.62899971 -6.1020002365 0
          12.602999687 -5.1020002365 0 12.576999664 -4.1020002365 0
          12.550999641 -3.1019999981 0 12.526000023 -2.1019999981 0
          12.5 -1.1019999981 0 12.473999977 -0.10199999809 0
          12.449000359 0.89800000191 0 12.423000336 1.8980000019 0
          12.397000313 2.8980000019 0 12.37100029 3.8980000019 0
          12.345000267 4.8979997635 0 12.319000244 5.8979997635 0
          12.293000221 6.896999836 0 12.265999794 7.896999836 0
          12.239999771 8.8970003128 0 12.213000298 9.8959999084 0
          12.18599987 10.895999908 0 13.812999725 -13.076999664 0
          13.786000252 -12.076000214 0 13.758999825 -11.076000214 0
          13.732999802 -10.076000214 0 13.706000328 -9.0749998093 0
          13.680000305 -8.0749998093 0 13.654000282 -7.0749998093 0
          13.628000259 -6.0739998817 0 13.602000237 -5.0739998817 0
          13.576999664 -4.0739998817 0 13.550999641 -3.0739998817 0
          13.526000023 -2.0739998817 0 13.5 -1.074000001 0
          13.473999977 -0.074000000954 0 13.449000359 0.92599999905 0
          13.423000336 1.925999999 0 13.397999763 2.9260001183 0
          13.371999741 3.9260001183 0 13.345999718 4.9250001907 0
          13.319999695 5.9250001907 0 13.293999672 6.9250001907 0
          13.267000198 7.9239997864 0 13.241000175 8.9239997864 0
          13.213999748 9.9239997864 0 13.187000275 10.923000336 0
          14.81099987 -13.050000191 0 14.784000397 -12.048999786 0
          14.758000374 -11.048999786 0 14.730999947 -10.048000336 0
          14.704999924 -9.0480003357 0 14.678999901 -8.0480003357 0
          14.652999878 -7.0469999313 0 14.628000259 -6.0469999313 0
          14.602000237 -5.0469999313 0 14.576000214 -4.0469999313 0
          14.550999641 -3.0469999313 0 14.524999619 -2.0469999313 0
          14.5 -1.0470000505 0 14.475000381 -0.046999998391 0
          14.449000359 0.95300000906 0 14.423999786 1.9529999495 0
          14.397999763 2.9530000687 0 14.371999741 3.9530000687 0
          14.347000122 4.9530000687 0 14.321000099 5.9520001411 0
          14.295000076 6.9520001411 0 14.269000053 7.9520001411 0
          14.241999626 8.9510002136 0 14.215999603 9.9510002136 0
          14.18900013 10.949999809 0 15.81000042 -13.022000313 0
          15.782999992 -12.022000313 0 15.755999565 -11.022000313 0
          15.729999542 -10.020999908 0 15.704000473 -9.0209999084 0
          15.67800045 -8.0200004578 0 15.652000427 -7.0199999809 0
          15.626999855 -6.0199999809 0 15.600999832 -5.0199999809 0
          15.576000214 -4.0190000534 0 15.550999641 -3.0190000534 0
          15.524999619 -2.0190000534 0 15.5 -1.0190000534 0
          15.475000381 -0.018999999389 0 15.449000359 0.9810000062 0
          15.423999786 1.9809999466 0 15.399000168 2.9800000191 0
          15.373000145 3.9800000191 0 15.347999573 4.9800000191 0
          15.32199955 5.9800000191 0 15.295999527 6.9790000916 0
          15.270000458 7.9790000916 0 15.244000435 8.9779996872 0
          15.217000008 9.9779996872 0 15.18999958 10.977999687 0
          16.808000565 -12.99600029 0 16.781000137 -11.994999886 0
          16.754999161 -10.994999886 0 16.729000092 -9.9940004349 0
          16.702999115 -8.9940004349 0 16.677000046 -7.9930000305 0
          16.652000427 -6.9930000305 0 16.625999451 -5.9930000305 0
          16.600999832 -4.9930000305 0 16.575000763 -3.992000103 0
          16.549999237 -2.992000103 0 16.524999619 -1.9919999838 0
          16.5 -0.99199998379 0 16.475000381 0.00800000038 0
          16.450000763 1.0080000162 0 16.424999237 2.007999897 0
          16.399000168 3.0069999695 0 16.374000549 4.0069999695 0
          16.347999573 5.0069999695 0 16.322999954 6.0069999695 0
          16.297000885 7.006000042 0 16.270999908 8.0059995651 0
          16.245000839 9.0050001144 0 16.218999863 10.005000114 0
          16.191999435 11.00399971 0 17.805999756 -12.968999863 0
          17.778999329 -11.968000412 0 17.753000259 -10.968000412 0
          17.726999283 -9.9670000076 0 17.701999664 -8.9670000076 0
          17.676000595 -7.9660000801 0 17.650999069 -6.9660000801 0
          17.625 -5.9660000801 0 17.600000381 -4.9660000801 0
          17.575000763 -3.9649999142 0 17.549999237 -2.9649999142 0
          17.524999619 -1.9650000334 0 17.5 -0.96499997377 0
          17.475000381 0.035000000149 0 17.450000763 1.0349999666 0
          17.424999237 2.0350000858 0 17.399999619 3.0339999199 0
          17.375 4.0339999199 0 17.349000931 5.0339999199 0
          17.323999405 6.0339999199 0 17.298000336 7.0329999924 0
          17.273000717 8.0329999924 0 17.246999741 9.031999588 0
          17.221000671 10.031999588 0 17.194000244 11.031000137 0
          18.804000854 -12.942000389 0 18.777999878 -11.942000389 0
          18.752000809 -10.940999985 0 18.725999832 -9.9399995804 0
          18.700000763 -8.9399995804 0 18.674999237 -7.9400000572 0
          18.649000168 -6.9390001297 0 18.624000549 -5.9390001297 0
          18.599000931 -4.9390001297 0 18.573999405 -3.9389998913 0
          18.549999237 -2.9379999638 0 18.524999619 -1.9379999638 0
          18.5 -0.93800002337 0 18.475000381 0.061999998987 0
          18.450000763 1.0620000362 0 18.426000595 2.0610001087 0
          18.400999069 3.0610001087 0 18.375999451 4.0609998703 0
          18.350999832 5.0609998703 0 18.325000763 6.0599999428 0
          18.299999237 7.0599999428 0 18.274000168 8.0600004196 0
          18.247999191 9.0590000153 0 18.222000122 10.057999611 0
          18.195999146 11.057999611 0 19.802000046 -12.916000366 0
          19.774999619 -11.914999962 0 19.75 -10.913999557 0
          19.724000931 -9.9139995575 0 19.698999405 -8.9130001068 0
          19.673000336 -7.9130001068 0 19.648000717 -6.9130001068 0
          19.622999191 -5.9120001793 0 19.599000931 -4.9120001793 0
          19.573999405 -3.9119999409 0 19.548999786 -2.9119999409 0
          19.524999619 -1.9119999409 0 19.5 -0.91200000048 0
          19.475000381 0.087999999523 0 19.451000214 1.0880000591 0
          19.426000595 2.0880000591 0 19.400999069 3.0880000591 0
          19.377000809 4.0879998207 0 19.351999283 5.0869998932 0
          19.326999664 6.0869998932 0 19.301000595 7.0869998932 0
          19.275999069 8.0860004425 0 19.25 9.0860004425 0
          19.225000381 10.085000038 0 19.197999954 11.083999634 0
          20.798999786 -12.888999939 0 20.773000717 -11.888999939 0
          20.747999191 -10.887999535 0 20.722000122 -9.8879995346 0
          20.697000504 -8.8870000839 0 20.672000885 -7.8870000839 0
          20.646999359 -6.8860001564 0 20.621999741 -5.8860001564 0
          20.597999573 -4.8860001564 0 20.572999954 -3.8849999905 0
          20.548999786 -2.8849999905 0 20.524000168 -1.8849999905 0
          20.5 -0.88499999046 0 20.475999832 0.11500000209 0
          20.451000214 1.1150000095 0 20.427000046 2.1150000095 0
          20.402000427 3.114000082 0 20.378000259 4.1139998436 0
          20.353000641 5.1139998436 0 20.327999115 6.1129999161 0
          20.302999496 7.1129999161 0 20.277999878 8.1120004654 0
          20.252000809 9.1120004654 0 20.226999283 10.111000061 0
          20.201000214 11.111000061 0 21.797000885 -12.862999916 0
          21.770999908 -11.862999916 0 21.74600029 -10.862000465 0
          21.721000671 -9.861000061 0 21.695999146 -8.861000061 0
          21.670999527 -7.8600001335 0 21.645999908 -6.8600001335 0
          21.62100029 -5.8600001335 0 21.597000122 -4.859000206 0
          21.572999954 -3.8589999676 0 21.548000336 -2.8589999676 0
          21.524000168 -1.8589999676 0 21.5 -0.85900002718 0
          21.475999832 0.14100000262 0 21.451999664 1.1410000324 0
          21.427000046 2.1410000324 0 21.402999878 3.1410000324 0
          21.37899971 4.1399998665 0 21.354000092 5.1399998665 0
          21.329000473 6.1399998665 0 21.304000854 7.138999939 0
          21.278999329 8.138999939 0 21.25399971 9.1379995346 0
          21.229000092 10.137000084 0 21.202999115 11.137000084 0
          22.794000626 -12.838000298 0 22.7689991 -11.836999893 0
          22.743999481 -10.836000443 0 22.718999863 -9.8360004425 0
          22.694000244 -8.8350000381 0 22.669000626 -7.8350000381 0
          22.645000458 -6.8340001106 0 22.620000839 -5.8340001106 0
          22.596000671 -4.8330001831 0 22.572000504 -3.8329999447 0
          22.548000336 -2.8329999447 0 22.524000168 -1.8329999447 0
          22.5 -0.83300000429 0 22.475999832 0.16699999571 0
          22.451999664 1.1670000553 0 22.427999496 2.1670000553 0
          22.403999329 3.1670000553 0 22.379999161 4.1659998894 0
          22.354999542 5.1659998894 0 22.330999374 6.1649999619 0
          22.305999756 7.1649999619 0 22.281000137 8.1639995575 0
          22.256000519 9.1639995575 0 22.2310009 10.163000107 0
          22.205999374 11.161999702 0 23.791999817 -12.812000275 0
          23.766000748 -11.81099987 0 23.740999222 -10.81000042 0
          23.716999054 -9.8100004196 0 23.691999435 -8.8090000153 0
          23.667999268 -7.8090000153 0 23.642999649 -6.8080000877 0
          23.618999481 -5.8080000877 0 23.594999313 -4.8080000877 0
          23.570999146 -3.8069999218 0 23.548000336 -2.8069999218 0
          23.524000168 -1.807000041 0 23.5 -0.8069999814 0
          23.475999832 0.1930000037 0 23.451999664 1.192999959 0
          23.429000854 2.1930000782 0 23.405000687 3.1919999123 0
          23.381000519 4.1919999123 0 23.357000351 5.1919999123 0
          23.332000732 6.1909999847 0 23.308000565 7.1909999847 0
          23.283000946 8.1899995804 0 23.259000778 9.1899995804 0
          23.233999252 10.18900013 0 23.208000183 11.187999725 0
          24.788999557 -12.786999702 0 24.763999939 -11.786000252 0
          24.73900032 -10.784999847 0 24.715000153 -9.7840003967 0
          24.690000534 -8.7840003967 0 24.666000366 -7.7829999924 0
          24.642000198 -6.7829999924 0 24.618000031 -5.7820000648 0
          24.593999863 -4.7820000648 0 24.570999146 -3.7820000648 0
          24.547000885 -2.7820000648 0 24.524000168 -1.7819999456 0
          24.5 -0.78100001812 0 24.475999832 0.21799999475 0
          24.452999115 1.2180000544 0 24.429000854 2.2179999352 0
          24.406000137 3.2179999352 0 24.381999969 4.2179999352 0
          24.357999802 5.2170000076 0 24.333999634 6.2170000076 0
          24.309999466 7.2160000801 0 24.284999847 8.2159996033 0
          24.26099968 9.2150001526 0 24.236000061 10.213999748 0
          24.211000443 11.213000298 0 25.785999298 -12.76099968 0
          25.76099968 -11.76099968 0 25.736999512 -10.760000229 0
          25.711999893 -9.7589998245 0 25.687999725 -8.7580003738 0
          25.663999557 -7.757999897 0 25.641000748 -6.7569999695 0
          25.61700058 -5.7569999695 0 25.593000412 -4.7569999695 0
          25.569999695 -3.756000042 0 25.547000885 -2.756000042 0
          25.523000717 -1.756000042 0 25.5 -0.75599998236 0
          25.476999283 0.24400000274 0 25.452999115 1.243999958 0
          25.430000305 2.243999958 0 25.406999588 3.2430000305 0
          25.38299942 4.2430000305 0 25.358999252 5.2430000305 0
          25.336000443 6.242000103 0 25.312000275 7.242000103 0
          25.288000107 8.2410001755 0 25.263000488 9.2399997711 0
          25.23900032 10.23900032 0 25.214000702 11.23900032 0
          26.783000946 -12.736000061 0 26.75799942 -11.736000061 0
          26.733999252 -10.734999657 0 26.709999084 -9.734000206 0
          26.686000824 -8.7329998016 0 26.663000107 -7.7329998016 0
          26.638999939 -6.7319998741 0 26.615999222 -5.7319998741 0
          26.591999054 -4.7319998741 0 26.569000244 -3.7309999466 0
          26.545999527 -2.7309999466 0 26.523000717 -1.7309999466 0
          26.5 -0.7310000062 0 26.476999283 0.2689999938 0
          26.454000473 1.2690000534 0 26.430999756 2.2690000534 0
          26.408000946 3.2679998875 0 26.384000778 4.2680001259 0
          26.361000061 5.2680001259 0 26.336999893 6.2670001984 0
          26.313999176 7.2670001984 0 26.290000916 8.265999794 0
          26.266000748 9.2650003433 0 26.24200058 10.263999939 0
          26.216999054 11.263999939 0 27.780000687 -12.711999893 0
          27.756000519 -11.711000443 0 27.732000351 -10.710000038 0
          27.708000183 -9.7089996338 0 27.684000015 -8.7089996338 0
          27.660999298 -7.7080001831 0 27.638000488 -6.7080001831 0
          27.61400032 -5.7069997787 0 27.590999603 -4.7069997787 0
          27.568000793 -3.7060000896 0 27.545999527 -2.7060000896 0
          27.523000717 -1.7059999704 0 27.5 -0.70599997044 0
          27.476999283 0.29399999976 0 27.454000473 1.2940000296 0
          27.431999207 2.2939999104 0 27.409000397 3.2929999828 0
          27.38599968 4.2930002213 0 27.361999512 5.2919998169 0
          27.339000702 6.2919998169 0 27.315999985 7.2909998894 0
          27.291999817 8.2910003662 0 27.267999649 9.2899999619 0
          27.243999481 10.288999557 0 27.219999313 11.288000107 0
          28.777000427 -12.687000275 0 28.753000259 -11.68599987 0
          28.729000092 -10.68599987 0 28.704999924 -9.6850004196 0
          28.681999207 -8.6840000153 0 28.659000397 -7.6830000877 0
          28.63599968 -6.6830000877 0 28.61300087 -5.6830000877 0
          28.590000153 -4.6820001602 0 28.568000793 -3.6819999218 0
          28.545000076 -2.6819999218 0 28.523000717 -1.682000041 0
          28.5 -0.68099999428 0 28.476999283 0.31799998879 0
          28.454999924 1.317999959 0 28.431999207 2.3180000782 0
          28.409999847 3.3180000782 0 28.38699913 4.3169999123 0
          28.36400032 5.3169999123 0 28.340999603 6.3169999123 0
          28.318000793 7.3159999847 0 28.295000076 8.3149995804 0
          28.270999908 9.3140001297 0 28.246999741 10.31400013 0
          28.222999573 11.312999725 0 29.773000717 -12.663000107 0
          29.75 -11.661999702 0 29.725999832 -10.661000252 0
          29.702999115 -9.6610002518 0 29.680000305 -8.6599998474 0
          29.656999588 -7.6589999199 0 29.634000778 -6.6589999199 0
          29.611999512 -5.6579999924 0 29.589000702 -4.6579999924 0
          29.566999435 -3.6579999924 0 29.545000076 -2.6570000648 0
          29.521999359 -1.6569999456 0 29.5 -0.65700000525 0
          29.478000641 0.34299999475 0 29.454999924 1.3430000544 0
          29.433000565 2.3420000076 0 29.410999298 3.3420000076 0
          29.388000488 4.3420000076 0 29.365999222 5.3410000801 0
          29.343000412 6.3410000801 0 29.319999695 7.3400001526 0
          29.297000885 8.3389997482 0 29.274000168 9.3389997482 0
          29.25 10.338000298 0 29.226999283 11.336999893 0
          30.770000458 -12.638999939 0 30.74600029 -11.637999535 0
          30.722999573 -10.637000084 0 30.700000763 -9.6370000839 0
          30.677999496 -8.6359996796 0 30.655000687 -7.6350002289 0
          30.63299942 -6.6350002289 0 30.61000061 -5.6339998245 0
          30.587999344 -4.6339998245 0 30.565999985 -3.632999897 0
          30.544000626 -2.632999897 0 30.521999359 -1.6330000162 0
          30.5 -0.63300001621 0 30.478000641 0.36700001359 0
          30.455999374 1.3669999838 0 30.434000015 2.367000103 0
          30.412000656 3.3659999371 0 30.38999939 4.3660001755 0
          30.36700058 5.3649997711 0 30.344999313 6.3649997711 0
          30.322000504 7.3639998436 0 30.299999237 8.3629999161 0
          30.277000427 9.3629999161 0 30.25399971 10.362000465 0
          30.229999542 11.361000061 0 31.766000748 -12.616000175 0
          31.743000031 -11.614999771 0 31.719999313 -10.61400032 0
          31.697999954 -9.6129999161 0 31.674999237 -8.6120004654 0
          31.652999878 -7.6119999886 0 31.631000519 -6.611000061 0
          31.608999252 -5.6100001335 0 31.586999893 -4.6100001335 0
          31.565000534 -3.6099998951 0 31.542999268 -2.6099998951 0
          31.521999359 -1.6089999676 0 31.5 -0.60900002718 0
          31.478000641 0.39100000262 0 31.457000732 1.3899999857 0
          31.434999466 2.3900001049 0 31.413000107 3.3900001049 0
          31.391000748 4.3899998665 0 31.368999481 5.388999939 0
          31.347000122 6.3880000114 0 31.325000763 7.3880000114 0
          31.302000046 8.3870000839 0 31.280000687 9.3859996796 0
          31.256999969 10.385000229 0 31.233999252 11.383999825 0
          32.763000488 -12.593000412 0 32.740001678 -11.592000008 0
          32.716999054 -10.590999603 0 32.694999695 -9.5900001526 0
          32.673000336 -8.5889997482 0 32.651000977 -7.5879998207 0
          32.629001617 -6.5879998207 0 32.606998444 -5.5869998932 0
          32.585998535 -4.5869998932 0 32.563999176 -3.5859999657 0
          32.542999268 -2.5859999657 0 32.520999908 -1.5859999657 0
          32.5 -0.58600002527 0 32.479000092 0.41400000453 0
          32.457000732 1.4140000343 0 32.436000824 2.4140000343 0
          32.414001465 3.4130001068 0 32.393001556 4.4130001068 0
          32.370998383 5.4120001793 0 32.348999023 6.4120001793 0
          32.326999664 7.4109997749 0 32.305000305 8.4099998474 0
          32.283000946 9.4090003967 0 32.259998322 10.407999992 0
          32.236999512 11.406999588 0 33.758998871 -12.569999695 0
          33.736000061 -11.569000244 0 33.714000702 -10.56799984 0
          33.692001343 -9.5670003891 0 33.669998169 -8.5659999847 0
          33.64899826 -7.5650000572 0 33.626998901 -6.5640001297 0
          33.605998993 -5.5640001297 0 33.583999634 -4.5630002022 0
          33.562999725 -3.5629999638 0 33.541999817 -2.5629999638 0
          33.520999908 -1.5629999638 0 33.5 -0.56300002337 0
          33.479000092 0.43700000644 0 33.458000183 1.4370000362 0
          33.437000275 2.4370000362 0 33.416000366 3.4370000362 0
          33.394001007 4.4359998703 0 33.373001099 5.4359998703 0
          33.35100174 6.4349999428 0 33.330001831 7.4340000153 0
          33.307998657 8.4329996109 0 33.285999298 9.4320001602 0
          33.263999939 10.430999756 0 33.241001129 11.430000305 0
          34.755001068 -12.546999931 0 34.733001709 -11.545999527 0
          34.710998535 -10.545000076 0 34.688999176 -9.5439996719 0
          34.667999268 -8.5430002213 0 34.645999908 -7.5419998169 0
          34.625 -6.5419998169 0 34.604000092 -5.5409998894 0
          34.583000183 -4.5409998894 0 34.562000275 -3.5399999619 0
          34.541000366 -2.5399999619 0 34.520999908 -1.5399999619 0
          34.5 -0.54000002146 0 34.479000092 0.46000000834 0
          34.458999634 1.4600000381 0 34.437999725 2.4600000381 0
          34.416999817 3.4590001106 0 34.395999908 4.4590001106 0
          34.375 5.4580001831 0 34.354000092 6.4580001831 0
          34.332000732 7.4569997787 0 34.311000824 8.4560003281 0
          34.289001465 9.4549999237 0 34.266998291 10.454000473 0
          34.244998932 11.453000069 0 35.750999451 -12.524999619 0
          35.729000092 -11.524000168 0 35.707000732 -10.522999763 0
          35.686000824 -9.5220003128 0 35.665000916 -8.5209999084 0
          35.644001007 -7.5199999809 0 35.623001099 -6.5190000534 0
          35.60200119 -5.5190000534 0 35.582000732 -4.5180001259 0
          35.561000824 -3.5179998875 0 35.541000366 -2.5179998875 0
          35.520000458 -1.5169999599 0 35.5 -0.51700001955 0
          35.479999542 0.48300001025 0 35.458999634 1.4819999933 0
          35.438999176 2.4820001125 0 35.417999268 3.4820001125 0
          35.39799881 4.4809999466 0 35.376998901 5.4809999466 0
          35.355998993 6.4800000191 0 35.334999084 7.4790000916 0
          35.313999176 8.4779996872 0 35.292999268 9.4770002365 0
          35.270999908 10.475999832 0 35.249000549 11.475000381 0
          36.747001648 -12.503000259 0 36.724998474 -11.501999855 0
          36.703998566 -10.5 0 36.682998657 -9.4989995956 0
          36.661998749 -8.4989995956 0 36.64099884 -7.498000145 0
          36.620998383 -6.4970002174 0 36.60100174 -5.4970002174 0
          36.580001831 -4.4959998131 0 36.560001373 -3.4960000515 0
          36.540000916 -2.4949998856 0 36.520000458 -1.4950000048 0
          36.5 -0.49500000477 0 36.479999542 0.50499999523 0
          36.459999084 1.5049999952 0 36.439998627 2.5039999485 0
          36.419998169 3.5039999485 0 36.39899826 4.5029997826 0
          36.379001617 5.5029997826 0 36.35900116 6.501999855 0
          36.338001251 7.5009999275 0 36.317001343 8.5010004044 0
          36.296001434 9.5 0 36.275001526 10.498000145 0
          36.252998352 11.496999741 0 37.74200058 -12.480999947 0
          37.721000671 -11.479999542 0 37.700000763 -10.479000092 0
          37.680000305 -9.4779996872 0 37.659000397 -8.4770002365 0
          37.638999939 -7.4759998322 0 37.618999481 -6.4749999046 0
          37.598999023 -5.4749999046 0 37.578998566 -4.4739999771 0
          37.558998108 -3.4739999771 0 37.539001465 -2.4739999771 0
          37.520000458 -1.4730000496 0 37.5 -0.47299998999 0
          37.479999542 0.52700001001 0 37.460998535 1.5260000229 0
          37.441001892 2.5260000229 0 37.421001434 3.5260000229 0
          37.401000977 4.5250000954 0 37.381000519 5.5250000954 0
          37.361000061 6.5240001678 0 37.340999603 7.5229997635 0
          37.319999695 8.5220003128 0 37.299999237 9.5209999084 0
          37.278999329 10.520000458 0 37.25799942 11.519000053 0
          38.737998962 -12.460000038 0 38.716999054 -11.458999634 0
          38.696998596 -10.458000183 0 38.675998688 -9.4560003281 0
          38.65599823 -8.4560003281 0 38.636001587 -7.4549999237 0
          38.61700058 -6.4539999962 0 38.597000122 -5.4530000687 0
          38.576999664 -4.4530000687 0 38.557998657 -3.4519999027 0
          38.539001465 -2.4519999027 0 38.519001007 -1.4520000219 0
          38.5 -0.45199999213 0 38.480998993 0.54799997807 0
          38.460998535 1.5479999781 0 38.442001343 2.5480000973 0
          38.423000336 3.5469999313 0 38.402999878 4.5469999313 0
          38.38299942 5.5460000038 0 38.363998413 6.5450000763 0
          38.34400177 7.5440001488 0 38.324001312 8.5439996719 0
          38.303001404 9.5419998169 0 38.283000946 10.541000366 0
          38.262001038 11.539999962 0 39.73400116 -12.43900013 0
          39.713001251 -11.437999725 0 39.693000793 -10.437000275 0
          39.673000336 -9.4359998703 0 39.652999878 -8.4350004196 0
          39.633998871 -7.4340000153 0 39.613998413 -6.4330000877 0
          39.595001221 -5.4320001602 0 39.576000214 -4.4320001602 0
          39.556999207 -3.4309999943 0 39.537998199 -2.4309999943 0
          39.519001007 -1.4309999943 0 39.5 -0.43099999428 0
          39.480998993 0.56900000572 0 39.462001801 1.5690000057 0
          39.443000793 2.5690000057 0 39.423999786 3.5680000782 0
          39.404998779 4.5679998398 0 39.386001587 5.5669999123 0
          39.366001129 6.5659999847 0 39.347000122 7.5650000572 0
          39.326999664 8.5640001297 0 39.306999207 9.5629997253 0
          39.286998749 10.562000275 0 39.26599884 11.56099987 0
          40.729000092 -12.418999672 0 40.708999634 -11.416999817 0
          40.688999176 -10.416000366 0 40.669998169 -9.4149999619 0
          40.650001526 -8.4139995575 0 40.631000519 -7.4130001068 0
          40.611999512 -6.4120001793 0 40.592998505 -5.4120001793 0
          40.574001312 -4.4109997749 0 40.555999756 -3.4110000134 0
          40.536998749 -2.4100000858 0 40.519001007 -1.4099999666 0
          40.5 -0.40999999642 0 40.480998993 0.58999997377 0
          40.463001251 1.5900000334 0 40.444000244 2.5889999866 0
          40.425998688 3.5889999866 0 40.407001495 4.5879998207 0
          40.388000488 5.5879998207 0 40.368999481 6.5869998932 0
          40.349998474 7.5859999657 0 40.330001831 8.5850000381 0
          40.311000824 9.5839996338 0 40.291000366 10.583000183 0
          40.270999908 11.581000328 0 41.723999023 -12.399000168 0
          41.705001831 -11.397000313 0 41.685001373 -10.395999908 0
          41.666000366 -9.3950004578 0 41.646999359 -8.3940000534 0
          41.627998352 -7.3930001259 0 41.61000061 -6.3920001984 0
          41.590999603 -5.390999794 0 41.573001862 -4.390999794 0
          41.555000305 -3.3900001049 0 41.535999298 -2.3900001049 0
          41.518001556 -1.3899999857 0 41.5 -0.38999998569 0
          41.481998444 0.61000001431 0 41.464000702 1.6100000143 0
          41.444999695 2.6099998951 0 41.426998138 3.6089999676 0
          41.409000397 4.609000206 0 41.38999939 5.6079998016 0
          41.372001648 6.6069998741 0 41.353000641 7.6059999466 0
          41.333999634 8.6049995422 0 41.314998627 9.6040000916 0
          41.294998169 10.602999687 0 41.276000977 11.600999832 0
          42.71900177 -12.37899971 0 42.700000763 -11.376999855 0
          42.680999756 -10.376000404 0 42.661998749 -9.375 0
          42.644001007 -8.3739995956 0 42.625999451 -7.373000145 0
          42.606998444 -6.3720002174 0 42.589000702 -5.3720002174 0
          42.570999146 -4.3709998131 0 42.553001404 -3.3710000515 0
          42.535999298 -2.3699998856 0 42.518001556 -1.3700000048 0
          42.5 -0.37000000477 0 42.481998444 0.62999999523 0
          42.464000702 1.6299999952 0 42.446998596 2.6289999485 0
          42.429000854 3.6289999485 0 42.410999298 4.6279997826 0
          42.393001556 5.6279997826 0 42.374000549 6.626999855 0
          42.355998993 7.6259999275 0 42.338001251 8.625 0
          42.319000244 9.6239995956 0 42.299999237 10.623000145 0
          42.28099823 11.62100029 0 43.714000702 -12.359999657 0
          43.695999146 -11.357999802 0 43.676998138 -10.357000351 0
          43.659000397 -9.3559999466 0 43.64099884 -8.3549995422 0
          43.623001099 -7.3540000916 0 43.604999542 -6.353000164 0
          43.587001801 -5.3520002365 0 43.569999695 -4.3520002365 0
          43.551998138 -3.3510000706 0 43.534999847 -2.3510000706 0
          43.516998291 -1.3509999514 0 43.5 -0.35100001097 0
          43.483001709 0.64899998903 0 43.465000153 1.6490000486 0
          43.448001862 2.6489999294 0 43.430000305 3.6480000019 0
          43.412998199 4.6479997635 0 43.395000458 5.646999836 0
          43.376998901 6.6459999084 0 43.35900116 7.6449999809 0
          43.340999603 8.6440000534 0 43.323001862 9.642999649 0
          43.304000854 10.642000198 0 43.285999298 11.640000343 0
          44.708999634 -12.340999603 0 44.691001892 -11.338999748 0
          44.673000336 -10.338000298 0 44.654998779 -9.3369998932 0
          44.637001038 -8.3360004425 0 44.619998932 -7.3350000381 0
          44.60200119 -6.3340001106 0 44.584999084 -5.3330001831 0
          44.568000793 -4.3319997787 0 44.550998688 -3.3320000172 0
          44.534000397 -2.3320000172 0 44.516998291 -1.3309999704 0
          44.5 -0.33100000024 0 44.483001709 0.66900002956 0
          44.465999603 1.6679999828 0 44.449001312 2.6679999828 0
          44.431999207 3.6679999828 0 44.415000916 4.6669998169 0
          44.39799881 5.6659998894 0 44.380001068 6.6649999619 0
          44.362998962 7.6640000343 0 44.345001221 8.6630001068 0
          44.326999664 9.6619997025 0 44.308998108 10.661000252 0
          44.291000366 11.659000397 0 45.703998566 -12.32199955 0
          45.686000824 -11.321000099 0 45.668998718 -10.319000244 0
          45.651000977 -9.3179998398 0 45.633998871 -8.3170003891 0
          45.61700058 -7.3159999847 0 45.599998474 -6.3150000572 0
          45.583000183 -5.3140001297 0 45.566001892 -4.3140001297 0
          45.549999237 -3.3129999638 0 45.533000946 -2.3129999638 0
          45.51599884 -1.3129999638 0 45.5 -0.31299999356 0
          45.48400116 0.68699997663 0 45.466999054 1.6870000362 0
          45.450000763 2.6870000362 0 45.433998108 3.6860001087 0
          45.416999817 4.6859998703 0 45.400001526 5.6849999428 0
          45.38299942 6.6840000153 0 45.366001129 7.6830000877 0
          45.348999023 8.6820001602 0 45.331001282 9.6809997559 0
          45.313999176 10.678999901 0 45.296001434 11.67800045 0
          46.699001312 -12.303999901 0 46.680999756 -11.30300045 0
          46.664001465 -10.300999641 0 46.646999359 -9.3000001907 0
          46.630001068 -8.2989997864 0 46.613998413 -7.2979998589 0
          46.597000122 -6.2969999313 0 46.581001282 -5.2960000038 0
          46.563999176 -4.2960000038 0 46.548000336 -3.2950000763 0
          46.532001495 -2.2950000763 0 46.51599884 -1.2949999571 0
          46.5 -0.29499998689 0 46.48400116 0.70499998331 0
          46.467998505 1.7050000429 0 46.451999664 2.7049999237 0
          46.436000824 3.7039999962 0 46.418998718 4.7039999962 0
          46.402999878 5.7030000687 0 46.386001587 6.7020001411 0
          46.369998932 7.7010002136 0 46.353000641 8.6999998093 0
          46.335998535 9.6990003586 0 46.319000244 10.69699955 0
          46.300998688 11.696000099 0 47.693000793 -12.286999702 0
          47.675998688 -11.284999847 0 47.659999847 -10.284000397 0
          47.643001556 -9.281999588 0 47.626998901 -8.2810001373 0
          47.61000061 -7.2800002098 0 47.59400177 -6.2789998055 0
          47.577999115 -5.2779998779 0 47.562999725 -4.2779998779 0
          47.547000885 -3.2769999504 0 47.53099823 -2.2769999504 0
          47.51599884 -1.2769999504 0 47.5 -0.27700001001 0
          47.48400116 0.72299998999 0 47.46900177 1.7230000496 0
          47.452999115 2.7230000496 0 47.437000275 3.7219998837 0
          47.422000885 4.7220001221 0 47.40599823 5.7210001945 0
          47.38999939 6.7199997902 0 47.373001099 7.7189998627 0
          47.356998444 8.718000412 0 47.340000153 9.7159996033 0
          47.324001312 10.715000153 0 47.306999207 11.713000298 0
          48.687999725 -12.270000458 0 48.671001434 -11.267999649 0
          48.654998779 -10.265999794 0 48.638999939 -9.2650003433 0
          48.623001099 -8.263999939 0 48.606998444 -7.2630000114 0
          48.591999054 -6.2620000839 0 48.576000214 -5.2610001564 0
          48.561000824 -4.2610001564 0 48.546001434 -3.2599999905 0
          48.529998779 -2.2599999905 0 48.51499939 -1.2599999905 0
          48.5 -0.25900000334 0 48.48500061 0.74000000954 0
          48.470001221 1.7400000095 0 48.453998566 2.7400000095 0
          48.438999176 3.739000082 0 48.423999786 4.7389998436 0
          48.408000946 5.7379999161 0 48.393001556 6.7369999886 0
          48.376998901 7.736000061 0 48.361000061 8.7349996567 0
          48.345001221 9.734000206 0 48.328998566 10.732000351 0
          48.312000275 11.729999542 0 49.681999207 -12.253000259 0
          49.666000366 -11.251000404 0 49.650001526 -10.25 0
          49.634998322 -9.248000145 0 49.618999481 -8.2469997406 0
          49.604000092 -7.2459998131 0 49.589000702 -6.2449998856 0
          49.574001312 -5.243999958 0 49.558998108 -4.243999958 0
          49.543998718 -3.2430000305 0 49.528999329 -2.2430000305 0
          49.51499939 -1.2430000305 0 49.5 -0.24300000072 0
          49.48500061 0.75700002909 0 49.471000671 1.7569999695 0
          49.456001282 2.7569999695 0 49.441001892 3.756000042 0
          49.425998688 4.756000042 0 49.410999298 5.7550001144 0
          49.395999908 6.7540001869 0 49.381000519 7.7529997826 0
          49.365001678 8.751999855 0 49.349998474 9.75 0
          49.333999634 10.748999596 0 49.318000793 11.746999741 0
          50.676998138 -12.237000465 0 50.660999298 -11.234999657 0
          50.645999908 -10.234000206 0 50.630001068 -9.232000351 0
          50.615001678 -8.2309999466 0 50.60100174 -7.2300000191 0
          50.585998535 -6.2290000916 0 50.570999146 -5.228000164 0
          50.556999207 -4.2270002365 0 50.542999268 -3.2269999981 0
          50.527999878 -2.2269999981 0 50.513999939 -1.2259999514 0
          50.5 -0.22599999607 0 50.486000061 0.77399998903 0
          50.472000122 1.7730000019 0 50.457000732 2.7730000019 0
          50.443000793 3.7730000019 0 50.429000854 4.771999836 0
          50.414001465 5.7709999084 0 50.39899826 6.7699999809 0
          50.384998322 7.7690000534 0 50.369998932 8.767999649 0
          50.354000092 9.765999794 0 50.339000702 10.765000343 0
          50.323001862 11.762999535 0 51.671001434 -12.220999718 0
          51.65599823 -11.218999863 0 51.64099884 -10.218000412 0
          51.625999451 -9.2159996033 0 51.611000061 -8.2150001526 0
          51.597000122 -7.2140002251 0 51.583000183 -6.2129998207 0
          51.569000244 -5.2119998932 0 51.555000305 -4.2119998932 0
          51.541000366 -3.2109999657 0 51.527000427 -2.2109999657 0
          51.513999939 -1.2100000381 0 51.5 -0.20999999344 0
          51.486000061 0.79000002146 0 51.472999573 1.7890000343 0
          51.458999634 2.7890000343 0 51.444999695 3.7880001068 0
          51.430999756 4.7880001068 0 51.416999817 5.7870001793 0
          51.402999878 6.7859997749 0 51.388999939 7.7849998474 0
          51.374000549 8.7840003967 0 51.35900116 9.781999588 0
          51.34400177 10.781000137 0 51.328998566 11.779000282 0
          52.665000916 -12.206000328 0 52.650001526 -11.204000473 0
          52.636001587 -10.203000069 0 52.620998383 -9.2010002136 0
          52.606998444 -8.1999998093 0 52.59400177 -7.1989998817 0
          52.580001831 -6.1979999542 0 52.566001892 -5.1970000267 0
          52.553001404 -4.1960000992 0 52.540000916 -3.1960000992 0
          52.526000977 -2.1949999332 0 52.513000488 -1.1950000525 0
          52.5 -0.19499999285 0 52.486999512 0.80500000715 0
          52.473999023 1.8049999475 0 52.459999084 2.8039999008 0
          52.446998596 3.8039999008 0 52.433998108 4.8029999733 0
          52.419998169 5.8020000458 0 52.40599823 6.8010001183 0
          52.393001556 7.8000001907 0 52.379001617 8.7989997864 0
          52.363998413 9.7969999313 0 52.349998474 10.795999527 0
          52.334999084 11.793999672 0 53.659000397 -12.190999985 0
          53.644001007 -11.18900013 0 53.631000519 -10.187999725 0
          53.61700058 -9.1859998703 0 53.603000641 -8.1850004196 0
          53.590000153 -7.1840000153 0 53.576999664 -6.1830000877 0
          53.563999176 -5.1820001602 0 53.550998688 -4.1810002327 0
          53.537998199 -3.1809999943 0 53.525001526 -2.1800000668 0
          53.513000488 -1.1799999475 0 53.5 -0.18000000715 0
          53.486999512 0.81999999285 0 53.474998474 1.8200000525 0
          53.462001801 2.8190000057 0 53.449001312 3.8190000057 0
          53.436000824 4.8179998398 0 53.423000336 5.8169999123 0
          53.409999847 6.8159999847 0 53.396999359 7.8150000572 0
          53.38299942 8.8140001297 0 53.368999481 9.8120002747 0
          53.355998993 10.81099987 0 53.340999603 11.809000015 0
          54.652000427 -12.177000046 0 54.638999939 -11.175000191 0
          54.625 -10.173999786 0 54.611999512 -9.1719999313 0
          54.598999023 -8.170999527 0 54.585998535 -7.1700000763 0
          54.574001312 -6.1690001488 0 54.561000824 -5.1680002213 0
          54.548999786 -4.1669998169 0 54.536998749 -3.1659998894 0
          54.52399826 -2.1659998894 0 54.512001038 -1.1660000086 0
          54.5 -0.16599999368 0 54.487998962 0.83399999142 0
          54.47600174 1.8339999914 0 54.463001251 2.8340001106 0
          54.451000214 3.8329999447 0 54.438999176 4.8319997787 0
          54.425998688 5.8309998512 0 54.414001465 6.8299999237 0
          54.401000977 7.8289999962 0 54.388000488 8.8280000687 0
          54.375 9.8260002136 0 54.361000061 10.824999809 0
          54.347999573 11.822999954 0 55.645999908 -12.163000107 0
          55.63299942 -11.161999702 0 55.619998932 -10.159999847 0
          55.606998444 -9.1579999924 0 55.595001221 -8.156999588 0
          55.583000183 -7.1560001373 0 55.570999146 -6.1550002098 0
          55.558998108 -5.1539998055 0 55.547000885 -4.1529998779 0
          55.534999847 -3.1530001163 0 55.52299881 -2.1519999504 0
          55.512001038 -1.1519999504 0 55.5 -0.15199999511 0
          55.487998962 0.84799998999 0 55.47700119 1.8480000496 0
          55.465000153 2.8469998837 0 55.452999115 3.8469998837 0
          55.441001892 4.8460001945 0 55.429000854 5.8449997902 0
          55.416999817 6.8439998627 0 55.404998779 7.8429999352 0
          55.393001556 8.8420000076 0 55.380001068 9.8400001526 0
          55.36700058 10.838000298 0 55.354000092 11.836999893 0
          56.63999939 -12.149999619 0 56.626998901 -11.147999763 0
          56.615001678 -10.147000313 0 56.603000641 -9.1450004578 0
          56.590999603 -8.1440000534 0 56.578998566 -7.1430001259 0
          56.567001343 -6.140999794 0 56.555999756 -5.140999794 0
          56.544998169 -4.1399998665 0 56.533000946 -3.138999939 0
          56.521999359 -2.138999939 0 56.511001587 -1.1390000582 0
          56.5 -0.13899999857 0 56.488998413 0.86100000143 0
          56.478000641 1.8609999418 0 56.466999054 2.861000061 0
          56.455001831 3.8599998951 0 56.444000244 4.859000206 0
          56.432998657 5.859000206 0 56.421001434 6.8569998741 0
          56.409000397 7.8559999466 0 56.396999359 8.8549995422 0
          56.384998322 9.8529996872 0 56.373001099 10.852000237 0
          56.36000061 11.850000381 0 57.63299942 -12.137999535 0
          57.620998383 -11.13599968 0 57.60900116 -10.133999825 0
          57.597999573 -9.1319999695 0 57.585998535 -8.1309995651 0
          57.575000763 -7.1300001144 0 57.563999176 -6.1290001869 0
          57.553001404 -5.1279997826 0 57.541999817 -4.126999855 0
          57.532001495 -3.1259999275 0 57.520999908 -2.1259999275 0
          57.511001587 -1.1260000467 0 57.5 -0.12600000203 0
          57.488998413 0.87400001287 0 57.479000092 1.8739999533 0
          57.467998505 2.8740000725 0 57.458000183 3.8729999065 0
          57.446998596 4.8720002174 0 57.436000824 5.8709998131 0
          57.424999237 6.8699998856 0 57.414001465 7.868999958 0
          57.402000427 8.8680000305 0 57.39099884 9.8660001755 0
          57.379001617 10.86400032 0 57.36700058 11.862000465 0
          58.625999451 -12.126000404 0 58.615001678 -11.123999596 0
          58.604000092 -10.121999741 0 58.592998505 -9.1199998856 0
          58.582000732 -8.1190004349 0 58.570999146 -7.1180000305 0
          58.561000824 -6.117000103 0 58.549999237 -5.1160001755 0
          58.540000916 -4.1149997711 0 58.529998779 -3.114000082 0
          58.520000458 -2.114000082 0 58.509998322 -1.1139999628 0
          58.5 -0.11400000006 0 58.490001678 0.88599997759 0
          58.479999542 1.8860000372 0 58.470001221 2.885999918 0
          58.459999084 3.8849999905 0 58.450000763 4.8839998245 0
          58.438999176 5.882999897 0 58.429000854 6.8819999695 0
          58.417999268 7.881000042 0 58.407001495 8.8800001144 0
          58.395999908 9.8780002594 0 58.384998322 10.876000404 0
          58.374000549 11.873999596 0 59.619998932 -12.11400032 0
          59.60900116 -11.112000465 0 59.597999573 -10.109999657 0
          59.588001251 -9.109000206 0 59.576999664 -8.107000351 0
          59.567001343 -7.1059999466 0 59.556999207 -6.1050000191 0
          59.548000336 -5.1040000916 0 59.537998199 -4.103000164 0
          59.527999878 -3.1029999256 0 59.519001007 -2.1019999981 0
          59.508998871 -1.1019999981 0 59.5 -0.10199999809 0
          59.491001129 0.89800000191 0 59.480998993 1.8980000019 0
          59.472000122 2.8970000744 0 59.462001801 3.8970000744 0
          59.451999664 4.8959999084 0 59.443000793 5.8949999809 0
          59.432998657 6.8940000534 0 59.423000336 7.8930001259 0
          59.411998749 8.890999794 0 59.402000427 9.8900003433 0
          59.39099884 10.887999535 0 59.380001068 11.88599968 0
          60.612998962 -12.102999687 0 60.60200119 -11.100999832 0
          60.591999054 -10.098999977 0 60.582000732 -9.0979995728 0
          60.573001862 -8.0959997177 0 60.562999725 -7.0949997902 0
          60.554000854 -6.0939998627 0 60.544998169 -5.0929999352 0
          60.535999298 -4.0920000076 0 60.527000427 -3.0920000076 0
          60.518001556 -2.0910000801 0 60.508998871 -1.0909999609 0
          60.5 -0.090999998152 0 60.491001129 0.9089999795 0
          60.481998444 1.9090000391 0 60.472999573 2.9079999924 0
          60.464000702 3.9079999924 0 60.455001831 4.9070000648 0
          60.445999146 5.9060001373 0 60.437000275 6.9050002098 0
          60.426998138 7.9039998055 0 60.417999268 8.9020004272 0
          60.408000946 9.9010000229 0 60.39799881 10.899000168 0
          60.387001038 11.897000313 0 61.605998993 -12.093000412 0
          61.596000671 -11.090999603 0 61.585998535 -10.088999748 0
          61.576999664 -9.0869998932 0 61.568000793 -8.0860004425 0
          61.558998108 -7.0850000381 0 61.549999237 -6.0830001831 0
          61.541999817 -5.0819997787 0 61.533000946 -4.0819997787 0
          61.525001526 -3.0810000896 0 61.516998291 -2.0810000896 0
          61.50799942 -1.0800000429 0 61.5 -0.079999998212 0
          61.49200058 0.92000001669 0 61.483001709 1.9190000296 0
          61.474998474 2.9189999104 0 61.466999054 3.9179999828 0
          61.458000183 4.9180002213 0 61.450000763 5.9169998169 0
          61.441001892 6.9149999619 0 61.431999207 7.9140000343 0
          61.423000336 8.9130001068 0 61.414001465 9.9110002518 0
          61.403999329 10.909000397 0 61.394001007 11.906999588 0
          62.597999573 -12.083000183 0 62.589000702 -11.081000328 0
          62.580001831 -10.079000473 0 62.571998596 -9.0780000687 0
          62.562999725 -8.0760002136 0 62.555000305 -7.0749998093 0
          62.547000885 -6.0739998817 0 62.539001465 -5.0729999542 0
          62.53099823 -4.0720000267 0 62.52299881 -3.0710000992 0
          62.51499939 -2.0710000992 0 62.50799942 -1.0700000525 0
          62.5 -0.070000000298 0 62.49200058 0.93000000715 0
          62.48500061 1.92900002 0 62.47700119 2.9289999008 0
          62.46900177 3.9279999733 0 62.460998535 4.9270000458 0
          62.452999115 5.9260001183 0 62.444999695 6.9250001907 0
          62.437000275 7.9239997864 0 62.428001404 8.9219999313 0
          62.419998169 9.920999527 0 62.410999298 10.918999672 0
          62.402000427 11.916999817 0 63.590999603 -12.074000359 0
          63.583000183 -11.07199955 0 63.574001312 -10.069999695 0
          63.566001892 -9.0679998398 0 63.557998657 -8.0670003891 0
          63.550998688 -7.0650000572 0 63.542999268 -6.0640001297 0
          63.535999298 -5.0630002022 0 63.528999329 -4.0619997978 0
          63.520999908 -3.0620000362 0 63.513999939 -2.0610001087 0
          63.506999969 -1.0609999895 0 63.5 -0.061000000685 0
          63.493000031 0.93900001049 0 63.486000061 1.9390000105 0
          63.479000092 2.9379999638 0 63.471000671 3.9379999638 0
          63.464000702 4.9369997978 0 63.457000732 5.9359998703 0
          63.449001312 6.9349999428 0 63.442001343 7.9330000877 0
          63.433998108 8.9320001602 0 63.425998688 9.9300003052 0
          63.416999817 10.92800045 0 63.409000397 11.925999641 0
          64.583999634 -12.065999985 0 64.575996399 -11.06400013 0
          64.568000793 -10.062000275 0 64.560997009 -9.0600004196 0
          64.554000854 -8.0579996109 0 64.54599762 -7.0570001602 0
          64.540000916 -6.0560002327 0 64.532997131 -5.0549998283 0
          64.526000977 -4.0539999008 0 64.518997192 -3.0529999733 0
          64.513000488 -2.0529999733 0 64.505996704 -1.0520000458 0
          64.5 -0.052000001073 0 64.494003296 0.94800001383 0
          64.486999512 1.9470000267 0 64.481002808 2.9470000267 0
          64.473999023 3.9460000992 0 64.467002869 4.9450001717 0
          64.459999084 5.9439997673 0 64.45400238 6.9429998398 0
          64.445999146 7.9419999123 0 64.439002991 8.9399995804 0
          64.431999207 9.9379997253 0 64.424003601 10.93599987 0
          64.416000366 11.934000015 0 65.575996399 -12.057999611 0
          65.569000244 -11.055999756 0 65.56199646 -10.053999901 0
          65.555000305 -9.0520000458 0 65.549003601 -8.0500001907 0
          65.541999817 -7.0489997864 0 65.536003113 -6.0479998589 0
          65.529998779 -5.0469999313 0 65.524002075 -4.0460000038 0
          65.517997742 -3.0450000763 0 65.512001038 -2.0450000763 0
          65.505996704 -1.0440000296 0 65.5 -0.043999999762 0
          65.494003296 0.95599997044 0 65.487998962 1.9550000429 0
          65.482002258 2.9549999237 0 65.475997925 3.9539999962 0
          65.470001221 4.9530000687 0 65.463996887 5.9520001411 0
          65.458000183 6.9510002136 0 65.450996399 7.9499998093 0
          65.444999695 8.9479999542 0 65.43800354 9.9460000992 0
          65.430999756 10.944000244 0 65.424003601 11.942000389 0
          66.569000244 -12.050999641 0 66.56199646 -11.048000336 0
          66.555999756 -10.045999527 0 66.549003601 -9.0439996719 0
          66.542999268 -8.0430002213 0 66.538002014 -7.0409998894 0
          66.531997681 -6.0399999619 0 66.526000977 -5.0390000343 0
          66.521003723 -4.0380001068 0 66.51599884 -3.0380001068 0
          66.510002136 -2.0369999409 0 66.504997253 -1.0369999409 0
          66.5 -0.037000000477 0 66.495002747 0.96299999952 0
          66.489997864 1.9630000591 0 66.48400116 2.9619998932 0
          66.478996277 3.9619998932 0 66.473999023 4.9609999657 0
          66.468002319 5.9600000381 0 66.461997986 6.9590001106 0
          66.457000732 7.9569997787 0 66.450996399 8.9560003281 0
          66.444000244 9.954000473 0 66.43800354 10.951999664 0
          66.430999756 11.949000359 0 67.560997009 -12.043999672 0
          67.555000305 -11.041999817 0 67.549003601 -10.039999962 0
          67.543998718 -9.0380001068 0 67.538002014 -8.0360002518 0
          67.532997131 -7.0349998474 0 67.527999878 -6.0329999924 0
          67.523002625 -5.0320000648 0 67.517997742 -4.0310001373 0
          67.513999939 -3.0309998989 0 67.509002686 -2.0299999714 0
          67.504997253 -1.0299999714 0 67.5 -0.029999999329 0
          67.495002747 0.97000002861 0 67.490997314 1.9700000286 0
          67.486000061 2.9690001011 0 67.482002258 3.9690001011 0
          67.476997375 4.9679999352 0 67.472000122 5.9670000076 0
          67.467002869 6.9650001526 0 67.461997986 7.9640002251 0
          67.456001282 8.9619998932 0 67.450996399 9.9600000381 0
          67.444999695 10.958000183 0 67.439002991 11.956000328 0
          68.553001404 -12.038000107 0 68.547996521 -11.036000252 0
          68.542999268 -10.034000397 0 68.538002014 -9.031999588 0
          68.532997131 -8.029999733 0 68.528999329 -7.0289998055 0
          68.524002075 -6.0269999504 0 68.519996643 -5.0260000229 0
          68.51599884 -4.0250000954 0 68.512001038 -3.0250000954 0
          68.508003235 -2.0239999294 0 68.503997803 -1.0240000486 0
          68.5 -0.024000000209 0 68.496002197 0.97600001097 0
          68.491996765 1.9759999514 0 68.487998962 2.9749999046 0
          68.48400116 3.9749999046 0 68.480003357 4.9739999771 0
          68.475997925 5.9730000496 0 68.471000671 6.9710001945 0
          68.467002869 7.9699997902 0 68.461997986 8.968000412 0
          68.457000732 9.9659996033 0 68.452003479 10.963999748 0
          68.446998596 11.961999893 0 69.544998169 -12.032999992 0
          69.541000366 -11.029999733 0 69.536003113 -10.027999878 0
          69.531997681 -9.0260000229 0 69.527999878 -8.0249996185 0
          69.524002075 -7.0229997635 0 69.519996643 -6.021999836 0
          69.516998291 -5.0209999084 0 69.513000488 -4.0199999809 0
          69.510002136 -3.0190000534 0 69.507003784 -2.0190000534 0
          69.502998352 -1.0180000067 0 69.5 -0.017999999225 0
          69.497001648 0.98199999332 0 69.492996216 1.9809999466 0
          69.489997864 2.9809999466 0 69.486999512 3.9800000191 0
          69.483001709 4.9790000916 0 69.480003357 5.978000164 0
          69.475997925 6.9770002365 0 69.472000122 7.9749999046 0
          69.468002319 8.9739999771 0 69.463996887 9.9720001221 0
          69.458999634 10.970000267 0 69.455001831 11.967000008 0
          70.537002563 -12.027999878 0 70.532997131 -11.026000023 0
          70.528999329 -10.022999763 0 70.526000977 -9.0220003128 0
          70.522003174 -8.0200004578 0 70.518997192 -7.0180001259 0
          70.51599884 -6.0170001984 0 70.513000488 -5.015999794 0
          70.511001587 -4.0149998665 0 70.508003235 -3.013999939 0
          70.504997253 -2.013999939 0 70.502998352 -1.0130000114 0
          70.5 -0.013000000268 0 70.497001648 0.98699998856 0
          70.495002747 1.9859999418 0 70.491996765 2.986000061 0
          70.488998413 3.9849998951 0 70.486999512 4.984000206 0
          70.48400116 5.9829998016 0 70.481002808 6.9819998741 0
          70.477996826 7.9800000191 0 70.473999023 8.9779996872 0
          70.471000671 9.9770002365 0 70.467002869 10.973999977 0
          70.462997437 11.972000122 0 71.528999329 -12.024000168 0
          71.526000977 -11.022000313 0 71.523002625 -10.019000053 0
          71.519996643 -9.0170001984 0 71.516998291 -8.015999794 0
          71.513999939 -7.013999939 0 71.512001038 -6.0130000114 0
          71.510002136 -5.0120000839 0 71.508003235 -4.0110001564 0
          71.505996704 -3.0099999905 0 71.503997803 -2.0099999905 0
          71.501998901 -1.0089999437 0 71.5 -0.0089999996126 0
          71.498001099 0.99099999666 0 71.496002197 1.9900000095 0
          71.494003296 2.9900000095 0 71.491996765 3.989000082 0
          71.489997864 4.9879999161 0 71.487998962 5.9869999886 0
          71.486000061 6.986000061 0 71.483001709 7.984000206 0
          71.480003357 8.9829998016 0 71.476997375 9.9809999466 0
          71.473999023 10.977999687 0 71.471000671 11.975999832 0
          72.521003723 -12.020999908 0 72.517997742 -11.017999649 0
          72.51599884 -10.015999794 0 72.513000488 -9.013999939 0
          72.511001587 -8.0120000839 0 72.510002136 -7.0110001564 0
          72.508003235 -6.0089998245 0 72.505996704 -5.007999897 0
          72.504997253 -4.0069999695 0 72.503997803 -3.0069999695 0
          72.501998901 -2.006000042 0 72.500999451 -1.006000042 0
          72.5 -0.0060000000522 0 72.499000549 0.99400001764 0
          72.498001099 1.993999958 0 72.496002197 2.9930000305 0
          72.495002747 3.9930000305 0 72.494003296 4.992000103 0
          72.491996765 5.9910001755 0 72.489997864 6.9889998436 0
          72.488998413 7.9879999161 0 72.486999512 8.986000061 0
          72.48400116 9.984000206 0 72.482002258 10.982000351 0
          72.478996277 11.979000092 0 73.512001038 -12.017999649 0
          73.510002136 -11.015999794 0 73.509002686 -10.012999535 0
          73.507003784 -9.0109996796 0 73.505996704 -8.0100002289 0
          73.504997253 -7.007999897 0 73.503997803 -6.0069999695 0
          73.502998352 -5.006000042 0 73.501998901 -4.0050001144 0
          73.501998901 -3.0039999485 0 73.500999451 -2.003000021 0
          73.5 -1.003000021 0 73.5 -0.0030000000261 0
          73.5 0.99699997902 0 73.499000549 1.996999979 0
          73.498001099 2.9960000515 0 73.498001099 3.9949998856 0
          73.497001648 4.993999958 0 73.496002197 5.9930000305 0
          73.495002747 6.992000103 0 73.494003296 7.9899997711 0
          73.492996216 8.9890003204 0 73.490997314 9.9870004654 0
          73.489997864 10.984000206 0 73.487998962 11.982000351 0
          74.503997803 -12.015999794 0 74.502998352 -11.013999939 0
          74.501998901 -10.012000084 0 74.500999451 -9.0089998245 0
          74.5 -8.0080003738 0 74.5 -7.006000042 0
          74.499000549 -6.0050001144 0 74.499000549 -5.0029997826 0
          74.499000549 -4.001999855 0 74.499000549 -3.0020000935 0
          74.5 -2.0009999275 0 74.5 -1.0010000467 0
          74.5 -0.0010000000475 0 74.5 0.99900001287 0
          74.5 1.9989999533 0 74.500999451 2.9979999065 0
          74.500999451 3.9979999065 0 74.500999451 4.9970002174 0
          74.500999451 5.9949998856 0 74.5 6.993999958 0
          74.5 7.992000103 0 74.499000549 8.9910001755 0
          74.498001099 9.9879999161 0 74.497001648 10.986000061 0
          74.496002197 11.984000206 0
        </DataArray>
      </Points>
      <Cells>
        <DataArray type="Int64" Name="connectivity" format="ascii" RangeMin="1e+299" RangeMax="-1e+299">
        </DataArray>
        <DataArray type="Int64" Name="offsets" format="ascii" RangeMin="1e+299" RangeMax="-1e+299">
        </DataArray>
        <DataArray type="UInt8" Name="types" format="ascii" RangeMin="1e+299" RangeMax="-1e+299">
        </DataArray>
      </Cells>
    </Piece>
  </UnstructuredGrid>
</VTKFile>
